15
5 randomly positioned water molecules in a 5 * 5 * 5 box. No. 1.
O 0.47040014210561143 1.5067662315041763 2.5430478346628234
H 0.06352893859822983 1.3555510732785643 3.358433882985203
H 0.11684126938700751 0.8689901279275279 1.817110997206846
O 1.1223211162166384 3.7251013478125063 4.2236400815634525
H 0.7956586482694783 3.1863702837863315 3.4815280194032487
H 1.4723918283105482 4.621222604559243 3.8722173730713414
O 3.1438676362521796 2.4039108506064997 1.1345352502026196
H 3.6555204859624544 2.5610728761731143 1.9376408501533884
H 3.7565773370633257 2.6444971277719227 0.39853589060538275
O 3.256709067049368 0.9911559913251816 2.577104438198617
H 2.7358047528075993 0.1423651368288703 2.5966943363785866
H 2.9684567251948613 1.4771828301801224 3.2965170181836294
O 2.5251216409216126 4.990999923422031 2.589777617803642
H 2.7147899939355185 4.202552789812518 3.112360281408014
H 1.9739405570130177 4.683866885192416 1.8691870745380483
15
5 randomly positioned water molecules in a 5 * 5 * 5 box. No. 2.
O 2.1458412857958917 2.4909027169842113 1.8585369399131686
H 1.7306236830624946 2.995655277638904 1.1121007238984126
H 2.7615969027501266 3.1897045208604524 2.1851330395974804
O 3.083568711669874 1.0333904992463179 3.2269837046958916
H 2.107966063229064 1.1314450564780798 2.9614350560446936
H 3.071433737282266 0.27230163727756806 3.721763581915636
O 3.8226319050857818 3.1111239140122686 4.734199251531842
H 4.520293019511283 2.488538683351437 4.546854535721991
H 4.061817186019502 3.888845791920765 4.246464606209444
O 2.927014199288144 4.748558884287956 1.1495823440702329
H 3.058167494599915 4.4679259081773175 2.0885522837384576
H 3.4890519776046527 4.184833546118295 0.6268349570987481
O 0.3452169276516065 3.157191942704109 3.937015239564582
H 0.8196990430316502 3.2986593195063505 4.792430842260491
H 0.9809189661126116 3.194940155682423 3.249785063851382
15
5 randomly positioned water molecules in a 5 * 5 * 5 box. No. 3.
O 4.073236270014468 0.9665592041658927 4.9738530137916666
H 3.7679981260910034 0.814890517319359 4.116637088660061
H 4.9087334228602675 0.5277223034568258 4.96445562625326
O 1.858282049112523 4.618154071481293 2.9059824564654955
H 1.9044289046537555 4.425870105866314 1.9445947911350507
H 2.3847014455427713 3.9282672547378708 3.353947793405159
O 3.6936523575358144 2.4488742347251065 4.199803598528298
H 2.8597817364562674 1.9167262549482187 4.633849688058705
H 4.3801187118262686 2.3346245850857414 4.846123990250756
O 0.02119180428851286 1.372007839962568 1.9286646823987474
H 0.28170707210742235 1.7867055308999549 2.792378348110891
H 0.30657941339046263 1.9873708014207807 1.2105335262825911
O 2.397366020034592 1.6821400301175349 2.816892643905557
H 2.016142083116853 2.366290520457774 2.310874245622315
H 1.6484319565603263 1.0881130664159504 2.9689605073582035
15
5 randomly positioned water molecules in a 5 * 5 * 5 box. No. 4.
O 0.4580519698010016 1.7969589673332131 3.5770102546320315
H 0.07975834841775914 1.4315014712606637 2.7175581825258095
H 0.2628302802286308 1.1664984922588313 4.286928864414056
O 1.0230025297248995 2.6511862175263063 2.367192840699212
H 1.891637520760501 2.842649910575 2.7577205541593006
H 0.40539632351307264 3.180245782270782 2.8928213804862795
O 2.2398436851865204 0.8940969238729635 2.161191347564395
H 2.7283418948742 0.08756785603965989 2.157501644071048
H 2.824479547992809 1.5200263573363184 1.68777989256632
O 2.8792725978737126 3.958296470386782 1.0177613728560286
H 2.564629668950007 4.401922544176812 1.7762187189990442
H 3.7798467517049343 4.322259153365332 0.7957467415472865
O 4.206035166830476 1.4291747512716624 3.095936971209449
H 4.649243081161763 1.6505701535564854 2.2194722966128726
H 4.8356705971171925 0.9147538410242346 3.6397253560054104
15
5 randomly positioned water molecules in a 5 * 5 * 5 box. No. 5.
O 0.8847223201561011 0.11692783703331322 1.5726347497799043
H 0.03184729543849929 0.3680217654008535 1.2118056441988254
H 1.5156035257230667 0.3517412244597511 0.9475051383491147
O 3.690471562755371 2.462756755489444 0.3046253713477104
H 4.348959610314633 2.8832903223135045 0.9456782040556962
H 4.005835268698773 1.5241904835199265 0.26110371397196697
O 3.4433340058464204 3.2030487027802295 3.1351264289450227
H 3.9692241741791503 3.782874696733229 2.7062443819041317
H 2.9103078218357785 3.6657511436837575 3.7025390445965853
O 1.0065840909082713 2.396277266994754 3.833608332085512
H 0.9244319389607769 1.6436666101670778 3.182004617849294
H 1.5299222671426944 2.0861924173757407 4.56325677082512
O 1.3489265474417818 1.9631757623833153 1.7570243456692436
H 1.5304715871696184 2.5791410281854765 2.49906235346419
H 2.020967830053572 2.2343524150325718 1.070244196435913
15
5 randomly positioned water molecules in a 5 * 5 * 5 box. No. 6.
O 1.0316037129720512 1.802575776141705 0.2946006451018801
H 1.21978423688084 2.3281152097675912 1.1334082255924307
H 1.737420073020079 1.1048521656422756 0.217981671418145
O 2.9602494080263453 0.6554196531134843 4.121696699764847
H 3.537305355522582 0.8436483807274513 4.8302907614299455
H 3.500380571633435 0.9625143667300718 3.38620029410932
O 3.375256816222278 3.0416181483946043 2.1764362045373833
H 3.722445909484768 3.238840787753872 1.2729222812149923
H 4.130491096300242 3.029650840550505 2.750001109653171
O 4.044954312092946 0.6866523672582875 1.4486812220027079
H 3.2329652544273495 0.7711343809102709 1.95386221698545
H 4.030852798087224 1.365045146798757 0.7125709489199328
O 1.386628160293778 1.051488056701337 4.047141504795994
H 1.9294776930160862 1.037845924963078 4.806001831189701
H 1.7050237701738011 1.7652014582498856 3.466338631752409
15
5 randomly positioned water molecules in a 5 * 5 * 5 box. No. 7.
O 2.5244118659874717 4.270535621115405 2.246073799986993
H 2.0650577174779294 4.1479297652609235 3.069609962007761
H 1.8019962802044973 4.238449641860573 1.617982172512744
O 0.5176182400008617 2.5681560743927596 1.5453113962494747
H 1.4311233967043682 2.417640999190193 1.891227036348569
H 0.12342507505889877 3.2514234533517623 2.122878471768278
O 3.138382765472038 1.5994503431355134 1.158540105177659
H 3.304497002759738 0.8309716382891734 0.7380831356085169
H 3.0189754905830397 1.3227112206693605 2.1207542362103644
O 4.713893207316508 2.886744256156342 2.692536584137866
H 4.119494654260857 3.4959593549692753 3.1995099371001277
H 4.698995090214139 2.098746572194317 3.2455486316861135
O 0.9935128518218928 1.4476217696227516 0.36905139946585674
H 0.22540072433418923 1.058943768651743 0.00830694075208449
H 0.9771644662162287 1.128335558139182 1.3062524550077765
15
5 randomly positioned water molecules in a 5 * 5 * 5 box. No. 8.
O 2.0028442917594775 2.379329653615101 3.19484648977867
H 1.8514431206957558 3.2669412665868274 2.7392989886336743
H 1.3083375266255368 1.78842051275164 2.7990875445390118
O 2.315577330987437 3.7561383567100664 1.284348740132251
H 2.6591153860705252 4.025867515729648 0.4307709072709319
H 2.439267701612746 2.770468083633607 1.262466836133786
O 3.42568363529835 4.2508121760042386 2.7807381224016874
H 4.2313845441520535 4.7651311978982465 2.6876379789200375
H 3.553361095977767 3.839434294592958 3.6443621729485587
O 0.7023059002074311 3.828573342523271 3.6336134337189367
H 0.15340161103171335 4.055556968223327 2.8800618719410114
H 0.07746998317739051 3.7415706447441424 4.3461418935630345
O 0.7535966797112653 2.9115357447621464 1.1496673549148495
H 0.9866027487540422 3.585536961752429 1.782343968532381
H 0.39626615328774256 3.4097026871026825 0.4072111616597487
15
5 randomly positioned water molecules in a 5 * 5 * 5 box. No. 9.
O 3.3446039923895277 2.8885329952299617 0.6299959472559991
H 3.017358383321623 3.8534721144249007 0.6933469945158961
H 3.930376377205496 2.7079490277438327 1.3451111463182222
O 1.117535556461791 0.3904638209668987 1.330819725275103
H 1.7471138979388443 1.0298229206926106 1.0650814109473665
H 1.2989820139675814 0.273920013109225 2.184064917578542
O 2.919045372309986 1.168541464658438 3.245656036726901
H 3.0645281702813882 1.4925530558759463 2.384943736273545
H 3.303483323067523 0.29176363614219736 3.2877063194513063
O 1.2461740443625635 2.9707298896214085 3.0717897478348357
H 1.630368796565291 3.6453694214235535 2.498562301203723
H 2.007160080915237 2.3876363616102285 3.289565152059773
O 4.913392447024224 4.103045909073933 4.474824437194584
H 4.705134200195888 4.93968166082186 4.279971703453687
H 4.775127759883098 3.5483972977091804 3.7249935841165556
15
5 randomly positioned water molecules in a 5 * 5 * 5 box. No. 10.
O 0.7059798707166881 3.4151301912712833 2.6523701952396985
H 1.0700432407546916 2.6107053922893018 2.121424688729174
H 1.4511349795105741 3.707190089372968 3.1524837104312664
O 1.3361245364112528 1.5792340768445996 0.8951680609296497
H 1.4082390964614722 0.6577839695013097 0.718261198811099
H 0.5335596175819401 1.8276109180937956 0.4162168470350882
O 1.7618642816632957 1.2752950928291318 3.419658079669489
H 1.8975821877881733 1.298244596407066 4.401682571558981
H 2.6513320131288776 1.5815964466441197 3.0652181676179295
O 3.4427149521948874 3.8356957392540103 1.5971302175052027
H 3.2752276579416373 3.688873504125537 0.6519894261273333
H 4.319530931988022 4.201945955164052 1.6027635143433385
O 3.7327330241145145 3.2362684199904166 3.471691022195993
H 3.688711373582957 2.295648326756492 3.5326246593401733
H 2.910619969916616 3.4818778497010374 3.830545697058156
15
5 randomly positioned water molecules in a 5 * 5 * 5 box. No. 11.
O 3.0783158572920093 1.8340315128252898 3.269433726358809
H 3.7709783662112155 2.5413555535515635 3.1916210187568006
H 3.388320968586668 1.1150529724758973 3.744614856896103
O 2.7578865341453005 3.3118802002867493 1.8287619776677495
H 2.3011786738629425 3.0443282028620904 2.6208446682400655
H 3.7243108428939893 3.368452844257442 2.052352448487425
O 1.1245179889444308 2.3573227280466416 1.0895227285592561
H 1.0919954212620935 3.249060535682155 0.7087482718725003
H 1.4033674719546263 1.8805980608941892 0.31732356525636674
O 3.7170677180982903 1.633584052454922 0.8782115016437725
H 3.8473828091261284 2.302462249153745 0.23442683747779258
H 3.832747507316334 0.7972053250676526 0.4878998639229944
O 0.7820214842794604 4.288255158708915 3.1537617320617413
H 0.6337024036051386 3.314321146689519 2.969379272400165
H 1.589677243026296 4.506242077328604 2.6442719769010594
15
5 randomly positioned water molecules in a 5 * 5 * 5 box. No. 12.
O 2.051371829774717 1.6315095862567475 4.743631679139672
H 2.1909492923613594 1.3770976945681506 3.8579694931931066
H 1.6895005306780218 2.500865704541902 4.626226550815444
O 1.5931763089641309 2.961485180769996 1.6369568404703654
H 2.256533129231233 2.801239116976584 0.9994750073526141
H 2.0431221732244484 3.1942089225417476 2.5310523055588092
O 3.2638359802712498 1.6888029593040872 1.3156970703468733
H 3.7030483460831705 2.0804769523417845 0.48255228356858393
H 3.7288479366437732 2.1823370643460107 2.0189995166658896
O 1.6757416510703176 0.5929424328447358 0.6596706691456766
H 1.8759818977868385 0.7687163351534683 1.5844231576006937
H 2.5600459524986547 0.5212023130048091 0.27699936957885213
O 4.725532569900902 2.5904019107357996 4.22789987128028
H 4.0788360706299125 3.296209098990942 4.105026214159929
H 4.433058694264844 2.1267813935055213 4.944768894075099
15
5 randomly positioned water molecules in a 5 * 5 * 5 box. No. 13.
O 2.678306112884428 4.244660340586782 1.2504553768999682
H 2.4548873334454187 4.487537649696206 2.1275122729381266
H 2.3737975401043125 4.989427380066403 0.6927677008980554
O 2.936334469528018 1.77588114893801 2.841703110590121
H 3.5484987073269725 1.5852469447363373 2.1255207223458252
H 3.3813679407178556 2.395166676623951 3.4448764597638815
O 1.0313102289479015 0.5470343165990704 0.808714244341952
H 2.0142877322026185 0.5368905254155409 0.9858848966494692
H 0.828363666592693 1.411134117557859 0.595196223287479
O 1.5937530373343989 1.0148816714307096 3.5266743393551927
H 1.4482066733716137 0.14317546958050986 3.139930211403742
H 1.2373064732465258 1.6341525933203376 2.8816688602679412
O 1.1741072882974706 2.3770654603925596 4.549754849256661
H 0.695764193359337 2.8656932570157334 3.8137371408191334
H 0.5455782786171827 1.6082869042307495 4.7416797451811075
15
5 randomly positioned water molecules in a 5 * 5 * 5 box. No. 14.
O 2.7359297238604947 3.692533966992208 0.5858053211942249
H 2.299271156528634 2.8179142088773603 0.47077400108124123
H 3.7000430777402604 3.5550428754277146 0.6221977733218065
O 3.29398787585024 4.224295579464611 3.2979580585405954
H 3.7221120345501815 3.447571061127686 3.1003611791083863
H 2.7151867652899497 4.151818063978423 3.969138810809517
O 1.726014550067646 0.933093251939795 3.037931638053845
H 1.3634495107828333 0.9004857063546501 3.950316130125352
H 1.0030089202847585 1.4392805696755877 2.61129819311712
O 1.4241884711952624 1.5753884109046035 0.6504105684581851
H 2.051496792101889 1.7636469439909104 1.3055986487442621
H 1.379499901166712 0.5703244248201058 0.6349116386755033
O 4.248433113087501 2.073783942880331 1.2635414543647587
H 3.5098199501070946 1.9405310635815647 0.672379454047178
H 4.083339451708088 1.5285836103754677 2.0289465868658527
15
5 randomly positioned water molecules in a 5 * 5 * 5 box. No. 15.
O 4.755187172012827 3.6507040677083475 4.2942745564848765
H 4.109023118923079 3.011627069398734 4.7037678931800135
H 4.741977322763035 3.60737648623663 3.318314273755795
O 1.569876826847922 0.7522882052334207 1.2324983885982728
H 1.774327884305932 0.6873272684740689 2.1937194506003657
H 1.2008209339802254 1.6404880513021936 1.2014155581045345
O 2.4266945529479242 3.346747506714594 3.8404343924570816
H 2.431396802249229 4.257877317545441 3.6971891013738
H 1.7864365843611245 3.2345695358332573 4.543443029294563
O 0.39179827099774744 2.3521144213641465 3.04073060670591
H 0.22277759675036057 2.72490892470012 3.9055282975303554
H 0.900173179489565 1.5293728902976107 3.2406180342866584
O 3.7069501736009496 3.5608029151027116 1.5081920362790069
H 2.958496813944452 2.9803649796439315 1.6800123267647467
H 4.405441120729384 3.0289992259982124 1.9959293014251038
15
5 randomly positioned water molecules in a 5 * 5 * 5 box. No. 16.
O 1.680059979093989 2.630306244180158 3.8177941322581472
H 2.0551544283535454 3.2053306533754746 3.095385156183572
H 2.4622715145174925 2.0642870863066913 3.989903149519575
O 0.5165578177166924 3.7961416147173073 1.9435988334710808
H 0.7587690550935279 3.288242557154072 2.7335633933995647
H 0.7263754509540321 3.2090378059440483 1.233022584754138
O 3.185849255000229 3.819857387894176 4.376688076736061
H 2.3585135138316846 3.5253075892597 4.811212019143324
H 2.858975554307778 4.205193767865682 3.6311356692047774
O 1.7607536722125239 0.9833167722583452 2.1953175003753103
H 1.1727996494305168 0.3904348456321852 1.6932693408955086
H 1.4260890214862143 0.9179664267724139 3.1462333207108824
O 4.061363864441084 2.950277506187139 0.9218602593933661
H 4.761808376220039 2.394298653750951 0.5859482529057312
H 3.3130846176678626 2.458543879714583 0.7902272924419099
15
5 randomly positioned water molecules in a 5 * 5 * 5 box. No. 17.
O 1.2950634167742192 4.014515523643972 1.8672811943121725
H 0.9581478012026656 3.8212550408292736 2.7026729227090964
H 1.8987046136123618 3.2658227678221996 1.6411549904740201
O 3.257551961042165 0.8324185046184207 3.9944634759335833
H 3.064947836237577 0.18878175512101425 4.637181578272085
H 3.501948815607961 0.2581623691668795 3.188728928301383
O 3.801391175705083 4.614901224142548 1.2337343664166434
H 3.281692639001219 4.342735044562712 1.9458455794555283
H 3.2045075810889436 4.4118223354405535 0.5072444544365576
O 1.198029318269146 0.7778709503851389 4.374173948932027
H 1.2362404483643008 1.557672709725334 3.8503035297916375
H 1.9828829313865906 0.2690337922396083 4.097515861752957
O 2.3873341206152783 1.890279290963452 2.671633511709082
H 2.953919534183961 2.5633156293873585 2.2536548918729324
H 2.5968934035067637 2.10241820437885 3.5475819930860744
15
5 randomly positioned water molecules in a 5 * 5 * 5 box. No. 18.
O 2.752403088233147 3.870587828806291 0.9901988661008726
H 2.391308747059633 3.722063211191158 0.05414067729057892
H 2.46218448762212 3.1222491702997845 1.5537159225844834
O 3.43719942326056 4.322084116554448 2.7864421432945097
H 3.9736264735522804 4.776786383277593 2.2452877248183847
H 3.7051788119115887 4.575871629711187 3.6607946917600866
O 4.995064579107844 1.0080587228757136 3.1569587233596685
H 4.826350625710738 1.5323442697956176 3.9383042403227986
H 4.94233557345891 1.5680927548071355 2.424193921780155
O 2.7386235962225722 2.724034639444259 3.132375858112825
H 2.293897584839118 2.340592387984718 3.893082365841382
H 2.2521442319094165 3.5056920768366204 2.897989423806064
O 0.13748884178245435 0.5488626036694061 2.376999462803199
H 0.6351238264757069 0.7644155894755884 3.1547315874042954
H 0.6992801247533837 0.7641505611441649 1.6283156905042766
15
5 randomly positioned water molecules in a 5 * 5 * 5 box. No. 19.
O 1.0051174414242987 2.2474589515607253 2.5820146997965123
H 1.0762681921162394 2.383418627261801 3.481774948494285
H 1.0677978999936684 3.133023506458497 2.2016613465310897
O 2.5361296015716723 0.7330506659002584 1.5678316460857862
H 3.076396840098699 0.5270550578122295 2.260024296684233
H 3.176805668474677 0.7478239093802458 0.8869036415455075
O 3.4571019939233882 3.981317403113152 2.071631876734582
H 2.7418082049353956 4.191632996044476 2.7147793623809138
H 4.112152291684029 3.532334747099755 2.5006733454319887
O 4.260760770973907 1.2340502900044208 4.383397282569842
H 4.470101016332856 2.1350739414646656 4.081360875187487
H 3.4270600607131896 0.9769485427192031 3.9613347135583656
O 2.5097609799242546 3.7063853434949983 4.454221324487395
H 3.2727923557268572 4.228449783929295 4.75448562609963
H 2.777395343336294 3.130044214510847 3.697938180444424
15
5 randomly positioned water molecules in a 5 * 5 * 5 box. No. 20.
O 0.9362253400598886 2.883326019244494 4.377720225986143
H 0.3415902273330401 2.3442841941566277 3.7871613798796817
H 1.3990867736394785 2.1766809378396177 4.865755224942555
O 2.6980345581720937 1.9065071333395844 1.689824355864954
H 2.6403979291514386 1.2824776446018769 0.9936001222139916
H 1.7780107568211851 2.078643543004769 1.858393930247086
O 1.4080612444987528 3.3576453771919463 2.7421495293971776
H 2.0742606445351535 3.988467256210102 2.7428822047
H 0.7010934232778843 3.8645154128043435 2.404009983015656
O 4.860514182916364 2.263749600351337 2.2204776145073772
H 4.106516550613265 2.456400997620746 1.678040125108435
H 4.478174490234612 1.787030458793053 2.992730538402867
O 3.9960560033853505 3.8466454690034446 2.5997439822066237
H 3.752174013473173 3.7932593296158967 3.4833390830464133
H 3.181602688626532 3.732396465257088 2.216099654597184
15
5 randomly positioned water molecules in a 5 * 5 * 5 box. No. 21.
O 2.202781555632582 2.364687035514459 3.9704590683190184
H 2.729336294461791 3.0799883551883065 4.235804090493457
H 2.4376364036677187 2.2744086734697353 3.0193738863678226
O 2.3911968433613273 4.1328926256826755 0.4286692663382685
H 2.1768784972103052 3.8556182410590165 1.3550998491179156
H 1.7080545627891588 4.737517090395493 0.1637672937355536
O 3.921141989733724 4.77258667913309 3.4689693125251946
H 3.0552470150851714 4.686203085767671 4.026608372702554
H 4.1343797928496056 3.8817121488327695 3.351475684517353
O 3.727971558819962 2.198958810927995 0.93016353704927
H 3.72376887014976 3.0843869890934914 1.2134143426645445
H 4.467879228322234 2.2411345276202934 0.3370552844928423
O 0.4126482925853331 1.123680078397003 2.7831960252300036
H 1.0211959759065299 0.5048637508929561 2.36330900853489
H 0.5411249882267122 0.9462059142565504 3.627908973421011
15
5 randomly positioned water molecules in a 5 * 5 * 5 box. No. 22.
O 3.6130863999467318 1.8696776647132114 2.731336693583976
H 4.28259171192368 2.1099668409072465 3.304755202551241
H 3.8252252875789043 1.0232353571580841 2.5562438607396714
O 1.0709554048063896 0.549966121134553 0.8317034832242054
H 1.2230955309419227 1.2393179497869116 1.436915134115401
H 1.066561607879232 1.0986882352622762 0.0005428415657002805
O 2.797313000840869 2.940500079076548 4.390562007368822
H 2.069198965770559 2.3691288163132027 4.142743811482252
H 2.435630736692578 3.8350610368601314 4.431695204429897
O 0.19381294393174542 3.644683925937718 2.4638495042205353
H 0.8963938269229793 3.382311408578321 1.8462564817501508
H 0.5704276795295553 3.318961640079154 3.3681577648706544
O 4.0354506157321675 4.741268806038699 0.9719885602042677
H 4.940519247673037 4.751443716433788 0.6320846714303028
H 3.486436192574276 4.946638128439902 0.20106390947653363
15
5 randomly positioned water molecules in a 5 * 5 * 5 box. No. 23.
O 2.834179208348389 1.2612882529068425 2.763603010352618
H 2.9965936312556614 2.1357259439428544 2.4928260455125537
H 2.004272464938152 1.1222390411323429 2.480243996547018
O 3.1647660390828687 4.369048772908146 4.210673984318146
H 3.120461495639197 3.8170788796581676 4.999575040165328
H 3.260233838962176 3.645845364098042 3.5512146245657927
O 1.9612577526874135 3.6638600334751725 1.1928659991659445
H 2.32278264572387 3.199227655359572 2.012933820873341
H 2.4141620144373874 3.1765293680685738 0.5189647310409142
O 0.8674052127237436 1.849160877832761 1.1529256006362636
H 1.6505982436780195 1.3285458592450952 1.0615494232819374
H 0.5355938801061788 1.699763527042345 2.07351622753374
O 4.195923470340248 4.384818756161443 0.1697208670411987
H 4.983669696578001 4.794942335968125 0.5255765286001011
H 4.278839632989997 3.4327661103162366 0.47523402606681175
15
5 randomly positioned water molecules in a 5 * 5 * 5 box. No. 24.
O 3.6721275581517654 2.8555679098913265 4.6944834459832565
H 3.4828018066907216 3.280423074444948 3.8449661422140995
H 4.61233902707785 2.7050274442160833 4.698863725985982
O 4.136379259342067 0.8295131632013858 2.5925838230993596
H 4.04644136573263 1.4218069980700658 1.8668101983221996
H 4.013284412207131 1.3581761767976346 3.3436885661269065
O 4.185588681747655 3.4505783987784455 1.414715667715133
H 4.339515272703972 4.167732269071939 1.9941862263189258
H 3.9648356153172744 3.8670334105690602 0.5563857402026995
O 0.637255005814773 3.686900653830283 4.180091399364558
H 1.289081076686023 2.937527096755735 4.257863970756772
H 0.11504250238888003 3.483569648148935 3.412892555778215
O 0.7069589339014676 3.7392082164312472 1.6523176868542833
H 1.188355937120722 4.043389702984894 0.8572343108168008
H 1.4724025254850666 3.3716003816813105 2.137182791669767
15
5 randomly positioned water molecules in a 5 * 5 * 5 box. No. 25.
O 0.8498176778324334 0.6147618564862323 1.184679142354887
H 0.8877677499968096 0.049990570505988874 1.9787503780600315
H 1.0871986626478578 1.503712420307218 1.5585369335046826
O 2.9531035462551336 3.9126970985645264 3.131319491621378
H 3.4388926098238484 3.165338766123082 2.8139824599278973
H 2.390896558909029 3.545151632322111 3.8133203809084333
O 3.568694049611229 1.2764012770100637 0.47677314368865686
H 3.6079417194902246 2.1887789142735263 0.6219654938424772
H 2.710887801612733 1.07362105739104 0.19541202434771554
O 1.2729595291227151 4.180987483356557 2.6865186434468398
H 1.2031979623624405 4.713303097623305 1.9252847467206635
H 1.868139341537947 3.4583015308461866 2.411371769324728
O 3.1135842911346816 0.6210896645994946 3.688948741266629
H 3.5022240358528753 0.39176468139583176 2.8205061295126357
H 3.6186633360944938 1.319124158239165 4.050491282363318
15
5 randomly positioned water molecules in a 5 * 5 * 5 box. No. 26.
O 1.7905059907312975 1.5426425240843467 0.5706222349710588
H 0.9101633726699828 1.7513532264246654 1.029042091597776
H 2.374146915080014 2.2614758081361166 0.7663018914585142
O 0.7786419960803775 4.293716401056046 3.2831192891403878
H 1.4306039932827521 4.446698148723532 2.5893539785636137
H 1.0782525273820573 4.602731017648329 4.139489185075101
O 4.349752507847011 0.5107542688387662 3.695382022394073
H 4.558674160128753 0.28102249631946513 2.771247426116311
H 4.123457006982634 1.4789338401266816 3.5546547775807125
O 3.8234165838772745 2.9821847203554204 3.1856642307737246
H 4.216959607809098 3.5466163241236575 2.4317091661278205
H 4.215997229287175 3.3082498841083954 3.988046490853238
O 1.4837318117866922 0.9093011684725177 3.261018103330474
H 2.1275937681414607 0.20467912504455354 3.517987454050346
H 0.9925300073086893 0.5201657564977427 2.479787786057615
15
5 randomly positioned water molecules in a 5 * 5 * 5 box. No. 27.
O 4.029637329463628 2.2380863364910573 0.44487111528123735
H 3.2877905383007087 2.755576169587182 0.039781452368800096
H 3.83019386643871 2.333250957994641 1.4021629810144491
O 3.9937857102102647 0.9724135414689794 3.8412969802651693
H 3.632264546297472 0.3200427976391337 4.3627992367162385
H 3.8109682064521806 0.7608031225488415 2.8584874602629577
O 1.815745541007029 0.4932905096829171 2.439684278196564
H 1.006359123555936 0.2207403443957957 2.1440873999713803
H 2.3266966720614723 0.7279729801227899 1.557055624355975
O 1.3936110898111038 3.2219294521594644 3.2349333905001836
H 1.4801666407648613 3.363658920765031 4.186861814370805
H 1.8491329032543717 3.9730202705342195 2.793052950201612
O 0.9276915285267673 0.6054124498122176 4.218056267998786
H 0.05882683874347072 0.6315426491568932 3.7626890928921473
H 1.1972021774739585 1.552848718675506 4.437053604599434
15
5 randomly positioned water molecules in a 5 * 5 * 5 box. No. 28.
O 1.7853647256539784 3.6800144496929987 2.5643727084402257
H 1.2263706275526967 2.9690414124077487 2.53831838511394
H 1.4489044479508029 4.189919196364151 3.2518484819300273
O 0.9674081711766774 1.7003686733408696 0.9052194459623536
H 1.164472656576953 1.5325432236304468 1.8191605678135223
H 0.23843515205533083 1.0374359222791547 0.6473309242553762
O 1.329289453285563 3.215136401202461 0.26952059828971364
H 0.7409767879613499 3.991548807881913 0.36441759352563086
H 2.114109595386715 3.343391574514237 0.7072547846559104
O 3.870859589168317 4.273170959907607 4.104839350282337
H 3.8581016129114176 3.870416757061387 3.232576142761378
H 4.181097859050653 3.625919429587735 4.667508959408845
O 3.315367634714646 2.119284622715918 1.0821311020921343
H 3.226807660791485 2.6395966318532116 0.2668154161166546
H 3.1736960364846984 2.660991272799512 1.8711452292648088
15
5 randomly positioned water molecules in a 5 * 5 * 5 box. No. 29.
O 1.8700124137475183 2.583134017260677 3.286293231277735
H 2.7721115193133814 2.31803606583599 3.580967242687659
H 1.9172786755619144 2.7149290315104797 2.332473453232338
O 3.6306941540733946 1.3290359355998282 1.4160592696449592
H 4.29312691112715 1.9714281729474297 1.3356353976189876
H 2.8724446682520113 1.8937225025921554 1.3437806718766503
O 3.8158123069384855 1.2421303002830513 4.426433581999937
H 4.473252314795122 0.5541339379968359 4.248712989602934
H 4.34191000419558 2.0384901716300665 4.6178450204937755
O 4.56550919265289 3.225553888733508 3.327823323839766
H 4.09199020555609 3.833049870918467 2.824152700373657
H 4.462550708007363 2.3946553594512823 2.9430254502045363
O 3.1686172425444523 4.862141569052238 0.966622086379389
H 2.372808849024194 4.892413338382197 1.5045343799838484
H 2.8734833404355986 4.995493147628094 0.045821009457515105
15
5 randomly positioned water molecules in a 5 * 5 * 5 box. No. 30.
O 4.231516768288005 1.4962008426327316 2.4374379260806416
H 3.710047476544453 1.639318010494145 3.2775648668063626
H 3.594911137872569 1.2093877636214057 1.7625047946545265
O 2.894497400633153 2.9684647826858224 2.656420695190296
H 2.1308678088330977 2.7403684094113596 3.1610969589858655
H 2.805903067457479 2.363336886751625 1.9490337820679235
O 0.26499017264904334 2.3288915658938962 0.8701865342342358
H 0.8273149642332378 2.807176764354241 0.3456400850750583
H 0.22707535296872067 2.9174203724178263 1.6631925841388076
O 0.509902665985234 4.868655788127143 1.4522052147748632
H 0.8113815590362055 4.776579717426346 2.3213970319395703
H 1.258488746545162 4.7687376023429415 0.7994575272308423
O 1.5225672257534022 0.29813488997311566 2.6621915090818575
H 1.8829365177454842 1.1083753733565 2.301318873198948
H 1.9713473630939518 0.24701017648940926 3.5172846413081826
15
5 randomly positioned water molecules in a 5 * 5 * 5 box. No. 31.
O 0.5567868184321262 2.9944394934898186 2.9759058723967877
H 0.6738876895040466 3.2506151518164565 2.0070346493885616
H 0.7896073001278167 3.8174963091290084 3.451142011651021
O 4.196629706533519 4.466152851684084 4.076148502839456
H 3.6651535140182414 4.346735177538054 4.8502485475442665
H 3.5883089730054802 4.091885394729119 3.4040453441474194
O 2.362312100850872 1.3531403348666777 1.252640618285874
H 2.5827365884097775 2.2108972014859356 1.5013360054947753
H 2.1591645845885954 0.8653059772625883 1.9835511443703604
O 3.7478206624865855 0.3866064311022799 2.5181025643909827
H 4.172151912392986 0.08068706552432103 1.6274256942893626
H 4.3649003336218115 0.06223194040118324 3.2235592188123054
O 3.86281314451615 2.197145245908682 3.3811582024020788
H 3.6994023332369568 1.6558670939156492 4.187751243820552
H 3.447422094203679 1.6344003294880143 2.718049183568019
15
5 randomly positioned water molecules in a 5 * 5 * 5 box. No. 32.
O 4.94555351904436 1.4040852417267125 3.716820051025855
H 4.459993591084611 1.7579920511808262 2.9319789085929675
H 4.401129507201873 1.7665712186990978 4.451281592480846
O 3.5584269294641873 3.440479142023218 2.234787221893898
H 4.3039013841591185 3.6486011333540316 2.695966037794478
H 3.846510212891184 3.1483482158929297 1.3281061147883988
O 2.6187365006369783 2.0338498679344412 2.339183939333446
H 1.9025226001275897 1.7575873525195664 1.7450686756707365
H 2.51753150810959 1.4846043319181137 3.080000489375546
O 1.643650959731452 4.544312207895072 3.3518852790977394
H 1.7648024869033572 4.234803266050443 4.22012573358168
H 2.509762527850812 4.485067527232196 2.9687725300386196
O 3.44366449715064 0.11713383446004144 2.001342143836922
H 3.7521952408455155 0.27574353843844973 2.9154469319160494
H 2.7421353165829236 0.7876902402698166 1.9319850571128363
15
5 randomly positioned water molecules in a 5 * 5 * 5 box. No. 33.
O 1.9518568874846631 2.395426109949202 4.134522564921464
H 1.6504044269836977 1.7306871853281334 4.731132100772987
H 2.3090129909280854 3.033500591896465 4.6889265705043215
O 3.77101628937724 3.928573392389839 4.014437212120654
H 3.8835669919984332 4.886188815114088 3.99008392292161
H 4.6921907364971105 3.5535659328734184 3.960591852494701
O 1.5040558486191862 1.2724529342720547 2.5249354083670443
H 1.4093677430573617 1.074511374509501 3.473494869682838
H 2.447298228003026 1.5488241570430754 2.4190809252162837
O 3.6025376800169666 3.0058203827134684 2.718234246129359
H 3.375958588473693 2.828701522850747 3.5969698538626607
H 4.512882892827436 2.742712967777562 2.563746152044107
O 1.1316465870229075 3.0566604820092795 0.9115912965542633
H 0.6238680249107353 3.006077266570483 0.0895789602157232
H 0.5126656212642289 2.917255064148279 1.6337253430129515
15
5 randomly positioned water molecules in a 5 * 5 * 5 box. No. 34.
O 4.021979865286179 1.6188564118187854 2.898384390453651
H 3.089147290672482 1.4479981997251354 3.186559155493106
H 4.3502996743425655 0.7265697894979597 2.7390284291313463
O 2.9659517334720413 3.77537615582426 2.4293041919938707
H 2.526276745457958 3.2120082542105597 3.02548562953272
H 3.20459260892016 3.2074482428374105 1.771209068525508
O 1.0475059715854012 3.7301117230266083 3.727517358885442
H 1.4257289303761695 2.8917414751178177 4.010485774002956
H 0.6941222418424388 3.557529182592935 2.8534624316302786
O 1.6684485605737893 4.08014104293506 0.9678709610761144
H 1.2184011848054501 3.5041774430726416 0.3501344262469076
H 2.521198500925714 3.705490801302367 0.8802543926532144
O 1.1960028078849494 2.105330766095219 2.2737711011274824
H 0.38777339963291557 2.214513674041675 2.7774031057501154
H 1.9275458849984086 2.0115710780481137 2.920467511926932
15
5 randomly positioned water molecules in a 5 * 5 * 5 box. No. 35.
O 4.752022805193704 0.7457509368785731 3.505137504715261
H 4.498553866021613 1.2589434297472342 4.263556806115492
H 4.505091076560664 1.2735827120777687 2.8042739641346786
O 3.3887501130422875 2.6594080956399506 2.6619329335533997
H 3.801681264966323 2.7906863790563374 3.4787721488104992
H 4.017649031910829 2.950664772795468 2.137564448868379
O 0.30540233156108987 3.6548032670188393 1.0863106791717598
H 0.3480237227525419 4.215149162341012 0.35941283283323644
H 0.4081862990510844 4.203886918299267 1.8173382164591652
O 2.4188171566418153 0.4280364952178334 3.403936829825615
H 1.8201979300963125 0.8325749973798995 4.071665381038045
H 2.0039963541447596 0.6847522899809808 2.5499869092880156
O 2.944794680229148 1.3341500300967906 0.7581997800006368
H 3.8606991705860367 1.7352821424738694 0.775177278039335
H 2.920828844155793 0.9788208013435282 1.6604621668035775
15
5 randomly positioned water molecules in a 5 * 5 * 5 box. No. 36.
O 3.0406927295653214 1.1740034692441148 0.057565841746236024
H 4.033567318182734 1.1816105789180096 0.03107692585773618
H 2.767312302971361 0.2839962566494053 0.18741466519153416
O 4.354450429618023 3.5710039228511317 0.9337950119481636
H 4.84363904407042 3.862794575236514 0.16911680938288243
H 4.7600393806067505 3.968226307900433 1.6282947509801766
O 0.10940465132000199 0.14597314562190433 3.144150061698957
H 0.6735025083892249 0.10985444446863543 3.9592065360023034
H 0.6850467478358293 0.1397038741461304 2.3847326970421134
O 1.2522035062291965 3.3551959253697383 0.7522843780451449
H 1.4691488002532573 3.4820047953194573 1.6420888347388387
H 1.4409386371585602 4.1332326196046045 0.297977078938402
O 0.6829172103737252 4.761765768161613 3.647675669218237
H 0.5472264438435476 4.1161666775608605 2.9958716792057025
H 1.1745793179474115 4.2636512019420865 4.239292266597804
15
5 randomly positioned water molecules in a 5 * 5 * 5 box. No. 37.
O 3.244553610466005 3.7150353920930055 1.9715469691058218
H 3.489861539932669 2.9874364630157224 1.3182278380397912
H 2.35848686037296 3.4803058301918868 2.2386827186327176
O 2.712927024438598 1.5899086426556512 2.3124832153127843
H 3.3076659218197064 1.2784611553122684 3.0732040765837687
H 2.857709233190229 1.114470157847166 1.5909518377610223
O 0.8954376313035728 0.8395518118396472 3.241230536559952
H 0.6114810864277839 0.23996071175559974 2.589972582153373
H 1.8112482193627288 0.5245972033873464 3.3411713287154328
O 2.2798292661541746 3.7126858003495897 4.685974462680101
H 2.259602777595303 2.763360106403649 4.821555526322072
H 2.332376740987274 3.8743793229069605 3.756502390216036
O 0.6604943370759325 1.6336286676965006 1.4039579452644457
H 0.21970032039849363 1.308895204241796 0.6462054630516056
H 0.038843478777864315 2.0072459056122662 1.9874540631309876
15
5 randomly positioned water molecules in a 5 * 5 * 5 box. No. 38.
O 2.6944600812764543 2.4827617323985636 4.8403568045572
H 2.158595029512141 2.0027318130811214 4.2685385980345565
H 3.560261944792765 2.5866963809167367 4.467691181239635
O 0.5175633043408984 1.5292667809677452 3.723636122971728
H 1.04422704511664 0.9691495774828538 4.300361168843566
H 0.7296116106316135 1.2070737836468137 2.8270455722226577
O 3.5205523700195855 1.3456827700004288 1.8876006712588382
H 3.1574838877705442 0.4602774239818205 1.7063004890277056
H 3.793718084400557 1.3143983898273988 2.8253091652677105
O 0.8353476169257373 1.3404578844686044 1.2811865025353564
H 1.4087942901880126 1.4809813456872405 0.5404148144797998
H 0.3030367876961676 0.5719905655328152 1.1122128939102947
O 0.7060726023509184 3.514932105651212 4.1231013408074695
H 1.4383673457924928 4.224270444757722 4.237462104444779
H 0.8141563084192185 3.324806759631523 3.1825294753583013
15
5 randomly positioned water molecules in a 5 * 5 * 5 box. No. 39.
O 2.2667598997587297 1.9721189271808721 2.903725571174621
H 1.3735974770290635 1.680970163481353 2.659107484824514
H 2.4449182994907837 2.7678652356454165 2.417207361391513
O 1.6736137134313533 3.3077945980018484 1.0257605349846792
H 1.8386614208620373 4.131645257902889 0.6797529842355607
H 2.4355987658177223 2.7621796439259225 1.039793524163115
O 4.787365286839622 1.6985491696584294 1.5390535376628156
H 4.712186353662894 1.6473129434660492 2.478611166087939
H 3.921585076635531 1.874001694697954 1.1456414414184373
O 2.9870370526325636 0.5928747778798549 4.330053579645854
H 3.0900368568476457 0.0638643968289625 3.50720791221865
H 2.1399688463202087 0.8871113885089785 4.421201463748124
O 1.8061532279618748 3.6875429137873668 3.5514993380351294
H 2.511838890181502 3.027632065903306 3.740530236872262
H 2.195783263552666 4.405591628280594 3.081828804203467
15
5 randomly positioned water molecules in a 5 * 5 * 5 box. No. 40.
O 2.9890003257557485 1.9009484075381589 3.4058944892825145
H 2.7784263888325107 1.3730707917775833 2.6982471632527716
H 2.5901595341054278 1.4844184684439174 4.184905309521737
O 2.426187520636037 4.634483182705934 2.0507037572585696
H 1.4972187344864074 4.522146231038547 1.6707032005813462
H 2.8592167699661397 3.894597568989459 1.7312546643810673
O 4.449048339949759 2.9741494960778696 0.5604168883216454
H 4.118082426628139 2.1966675252914136 0.11613488930161942
H 3.6528601109553116 3.493577133000422 0.8598936790169935
O 0.8800931267425327 1.1435062336436308 3.7151437823379356
H 1.3950896071029386 0.6840213028134607 2.9528597813635518
H 1.3521129623613541 0.796708090495942 4.501362746805751
O 0.37540996632223766 0.4853976209083938 1.2178417340226078
H 1.294349301623225 0.6727876628892047 1.0333823841986596
H 0.2030249949628573 0.7614073888043515 2.1576658851697093
15
5 randomly positioned water molecules in a 5 * 5 * 5 box. No. 41.
O 3.0413153687095944 4.50908172105559 0.9346073895687745
H 4.017959416505902 4.292432188697598 0.7152371448011763
H 2.707014506457324 3.8222676517325516 1.4364331928827445
O 1.1430099154831674 1.1355464204516652 2.584245082794103
H 2.075290996468865 0.8043132858675971 2.5474242536499454
H 0.9442823135893224 1.2672525746394738 3.494274443745388
O 1.962243484766013 4.004219204808222 3.8698335695716763
H 2.2254678253786873 3.46527975982336 4.606788327521411
H 1.078361711968404 4.38465249815698 4.108158975581161
O 1.3641440379824055 2.934428868973998 1.7365422114241413
H 0.5507589053201094 3.544379382967593 1.681684240551404
H 1.0119275000317214 2.061725539368102 1.435860973793408
O 4.943841045373572 1.9323946612858645 1.9847677837027717
H 4.132591268682206 2.3817825437172733 2.160571943662941
H 4.5774386311963955 1.193276252611938 1.506084022845278
15
5 randomly positioned water molecules in a 5 * 5 * 5 box. No. 42.
O 3.226243437792583 1.520776295723541 4.3936217653568885
H 3.6751109324914566 2.429210792064115 4.089344614895683
H 2.3270916850134453 1.7190080862098283 4.6896382730996375
O 3.208633292473018 0.7814218908633391 2.494621614055681
H 2.917106253298438 1.48803598738149 3.06584891931344
H 3.2890927709252153 1.3209315163653532 1.679362616251852
O 0.36996200417456715 4.214919565292554 2.489944222109526
H 0.7580340466202473 3.5431780351735203 1.9493741003223364
H 0.01710694292502868 3.7113556215666677 3.1799142592098772
O 3.8183570862974525 3.5313150748492643 0.8795547408055748
H 4.278700547403938 4.379408426317201 0.6880558886923464
H 4.440771985504054 2.9290615276313434 0.9418697291155009
O 0.8856437437648529 1.8378242191290328 3.694136633113965
H 0.03872108984295686 2.1599795119888707 4.078312386841559
H 0.7281450752871947 0.9169613753625359 3.4293183461663665
15
5 randomly positioned water molecules in a 5 * 5 * 5 box. No. 43.
O 4.905629046753448 2.2632650030186485 3.820378275862369
H 4.4468369845224744 1.9206825937710716 4.642209961073828
H 4.453677474514832 1.9705042212483765 3.0398428882337054
O 2.195869077428068 4.190113342468325 2.2863339073607287
H 2.716775179265674 3.853758685449273 3.0494930565008755
H 2.8472476768671644 4.049021996741939 1.562389655093009
O 4.061547003876143 0.5263314146269221 2.088149853370127
H 4.359282326124855 0.6662893929678186 1.1339290298614082
H 4.777853307095276 0.8999809450290185 2.580514076580428
O 0.8305299789384385 2.753310639677795 3.101628944629917
H 1.2954041426012388 2.6976689289702294 3.8726259309647726
H 1.4791698698210285 2.7026185401734155 2.428675182496531
O 1.7103658713834824 0.18617004279231797 1.9800887088048662
H 1.9408642253848367 0.35841193362611234 1.1009696373893294
H 2.0877106866454227 0.8699016636835846 2.494838831091077
15
5 randomly positioned water molecules in a 5 * 5 * 5 box. No. 44.
O 2.9587020246542 3.6611717006851503 1.7037973050515016
H 2.988820695207815 2.6925140091814566 1.4825925812405796
H 2.1164682497423093 3.8531144618571234 1.935393497529803
O 1.1933285197238424 4.426559694700091 3.145183839036788
H 0.7682558486207607 4.151293216532393 2.378572572986495
H 0.8643620532852259 3.797915649817014 3.8502737868707833
O 2.135755569402215 0.4510336795600961 3.9621404474786317
H 1.8135705342618134 0.4852012618755311 3.031638222661878
H 2.839770389780468 1.087486067928062 3.9803660359394986
O 2.022492970397461 1.1826939475613045 1.0016802434525514
H 1.2806343119001227 1.5618912842162174 0.4563269460165823
H 1.7131581762247585 0.2986207056112149 1.3576172296787985
O 1.0278413078677002 2.091255473806035 3.391246930299894
H 1.221844058820332 2.5291193234310736 4.2034530107986825
H 1.2679832530337907 2.769482816135832 2.7638623906059774
15
5 randomly positioned water molecules in a 5 * 5 * 5 box. No. 45.
O 4.735154999923433 2.231632755668022 2.3430424733717423
H 4.07832161030335 1.5083191216239062 2.0235636365530643
H 4.647149864837984 2.185875364175506 3.3107149982832014
O 2.0187227645760775 2.270243298999943 1.0532105467929298
H 1.627480443693361 2.515653717012984 0.24215172947477404
H 1.5466455709534255 2.840956729370306 1.628446890141856
O 1.3510728878334106 0.5938523695992626 2.160839791317758
H 1.183556780465873 1.3535730192493767 2.7341471773670785
H 1.5954148796789083 0.9453832187719422 1.3196807270469129
O 3.3234618103738995 4.319820486108862 1.4632220104173617
H 2.983183456924771 4.767158141349079 0.7185817271998451
H 2.6350452303610576 3.805903978230457 1.7782527126803633
O 0.14926716161682507 2.5215691697655114 3.5706443773799803
H 0.3848154978715318 2.966104342240089 2.7709870391250395
H 0.46804611217786884 3.0484202341340305 4.246543205055556
15
5 randomly positioned water molecules in a 5 * 5 * 5 box. No. 46.
O 1.571111028611314 0.4753886284755121 3.124983122709387
H 1.5776938755038967 0.5292233901365939 2.1303218567333966
H 0.8481200357199901 1.0598579209086834 3.405489357506093
O 2.1262336072589894 4.086534530387975 0.4167464669941717
H 2.2578113780312803 3.7071727496632194 1.3314465859481426
H 1.4744334401440353 3.4901354901494153 0.0669338328174105
O 2.2266796990579003 3.979070055112758 2.889441423196409
H 1.882139248996967 4.544260055533279 2.2639575996387906
H 1.9527073263382793 4.431680694638466 3.700770770287206
O 3.7521607810763347 0.2599555017875238 4.117975212993551
H 3.182273351911914 0.3526830718500701 4.8206957457137
H 3.208188930517432 0.40407111118175754 3.380797959409483
O 4.648800008093754 2.4556619798599995 3.111100570835425
H 4.267477860052304 2.282815242158239 4.003760951273073
H 3.9772276826664648 2.8278294180632013 2.5170201346922583
15
5 randomly positioned water molecules in a 5 * 5 * 5 box. No. 47.
O 4.684965293586659 1.0668756268169344 1.2733532697532306
H 4.84789395057172 0.18255070124414807 1.1901776767698768
H 4.942272534858541 1.5193270926748672 0.48763364149712807
O 4.272603486839394 0.8449083593900153 4.760062245488557
H 4.583010058859107 0.8645726756742798 3.904721441772525
H 3.872280725900496 1.7379407223637315 4.887150484986518
O 0.6517800722353256 0.5585752287684209 1.4875786166668763
H 0.938530962368777 0.7528491069718894 0.6153691392784981
H 1.4003608602585 0.07007990694725647 1.8395046015796126
O 1.0385720570207335 2.042647811949866 2.3631027225609325
H 1.832076499727212 2.4061044250667245 2.066405597387017
H 1.2268533973974476 1.8532788077601214 3.332735779152084
O 4.2556420797203325 3.9911378016750505 3.7063688619087416
H 4.6005470318232415 3.109817708400205 3.4976147317469164
H 4.773949226553722 4.194067524143307 4.52803269130948
15
5 randomly positioned water molecules in a 5 * 5 * 5 box. No. 48.
O 2.8083701887898265 3.024175670537195 0.614893647390945
H 3.176166408493796 3.347984235059747 1.4376585786565408
H 3.147786432806835 2.1041539002065903 0.46251310356336284
O 1.6209481995175206 1.2147514712773906 3.032248102991641
H 1.7241714713214946 1.597506093629823 3.9272369039181036
H 1.1162352435629812 0.45971464957920305 3.224002749390561
O 1.1911836646206027 4.571065402919345 3.531280856642034
H 0.24510310244621236 4.319779723033255 3.5882140847104003
H 1.3503724441418639 4.644260421698111 2.632433729919788
O 3.8905275018854084 3.925439472275896 4.1643854759272365
H 4.223871288964587 3.5833885720706524 3.25512796929394
H 4.440646898854885 3.5308130069390016 4.808313450871729
O 3.7058612561518482 1.3450900855883234 1.7789054293343827
H 4.524195590715018 1.0642325591513018 2.3559872764571157
H 2.9557565945052575 1.041569413522297 2.2599739522939037
15
5 randomly positioned water molecules in a 5 * 5 * 5 box. No. 49.
O 4.045637638410141 3.7125043898842938 2.640937526159072
H 3.911948940997333 2.8630748300756834 2.190926242978666
H 4.968929553573444 3.903687176000487 2.4883598267704508
O 1.430703450932 1.408459189699292 2.0123782957701164
H 0.8813693124522095 0.6803491525544524 1.7599351918357673
H 0.8830340721549235 1.9217192718562357 2.5156339558813583
O 3.351900904140637 3.078406516506644 4.240799005212315
H 4.01500060439426 3.7740864529391165 4.457646729110151
H 3.848017004206034 2.326710413526114 4.0138889592096305
O 1.3072589797191854 3.308941342371144 4.518117334643613
H 1.0044539846601603 2.780190281700495 3.7916759874758914
H 0.6065770158195986 3.954319537708629 4.790740927467495
O 3.9062819654781618 1.5960602167363107 1.2743283355688755
H 2.9802884027674557 1.471336440514767 1.496676995036426
H 4.428217424469063 1.3038215126363872 2.010208807942832
15
5 randomly positioned water molecules in a 5 * 5 * 5 box. No. 50.
O 4.516445868902332 1.6761236795937406 2.0259622135252204
H 4.875090257867819 1.2527200318179132 1.269769021268274
H 4.923449441290815 1.1773487973865162 2.8136991124328823
O 0.8346518781296225 4.879079835469129 0.2506970683932441
H 0.05195469915273487 4.601803598019307 0.6162080745974823
H 1.3440707789380553 4.939090112836485 1.026607877155695
O 2.104108067349353 0.303499936659824 3.4293006153808707
H 2.5618706836006657 1.1073141495208048 3.355096516923847
H 2.3371170006049327 0.010757110738254971 4.320025015265751
O 3.575315038572333 2.969197962267252 3.3471289924107124
H 4.218795275565897 2.591628034856227 2.7699582280909594
H 4.123820788025586 3.2131585266735567 4.1206970136598216
O 1.7966471089977514 4.413360370335822 2.4915345029256564
H 1.7933885659439408 3.770680047930356 3.130327016492622
H 1.805941852522446 3.8995773441623878 1.6612784071761437
15
5 randomly positioned water molecules in a 5 * 5 * 5 box. No. 51.
O 4.060970081634267 4.965441121105972 0.8070793674431276
H 3.909833928444044 4.873882154612397 1.7125864523436407
H 4.082350411299793 4.040840803505923 0.4788953010176634
O 1.0310765129847188 0.34523053166213624 2.057659974988818
H 1.6052263065173569 0.3929523661288965 1.356747271601685
H 1.604095597964858 0.28344846641245164 2.7914361419872704
O 2.6804172332765375 2.4501423832023876 1.6561368217576133
H 2.7617902971135693 1.7738822283150637 0.9537613713444075
H 1.8200524278781733 2.8378373514252138 1.4364290210032453
O 3.5636437824224494 3.9389047280986063 4.489145221481759
H 4.541991188437733 3.978603332446033 4.402560082863084
H 3.269184607046204 3.9391881989408226 3.544463290747646
O 1.4196983207149239 3.0812382935779272 4.517530462864311
H 2.216507115626345 3.5963752291245834 4.352823332879336
H 0.8406373875538303 3.2858611098212918 3.7865361789717156
15
5 randomly positioned water molecules in a 5 * 5 * 5 box. No. 52.
O 0.2954633958302727 0.9808694060114032 1.7624475336225853
H 0.0063413855736494384 1.7197591721421706 1.2242588379393413
H 1.124510723540415 1.2264235567226651 2.2293007843937396
O 3.275554268666766 0.5907777096833244 0.583474653886859
H 2.6120376128950844 1.1162825421653573 0.1723909350840907
H 3.2376444998266276 0.8111953119829107 1.5147206247276503
O 0.5793111826187519 3.358061024410071 4.846506898117934
H 0.04999417939654305 2.574047504745559 4.824187063857394
H 1.4613421953953942 3.153806743696564 4.690398201617232
O 3.86142742736312 2.480676395742254 3.351675907203176
H 3.4921871068417953 3.1789200147119923 3.82793493117551
H 3.9855086903879546 1.7481485784549768 4.023049251105948
O 1.3440850858236981 1.4095441505451167 3.82537306271821
H 1.1806122524874119 0.5630545843465613 3.431971024494371
H 2.0671429606311054 1.7311760901482032 3.2456893127883424
15
5 randomly positioned water molecules in a 5 * 5 * 5 box. No. 53.
O 0.8722924620743749 4.249376259251955 3.8776366089398744
H 1.3594628533809323 4.988262324201573 4.210148845657216
H 1.247545850391518 4.184279993897855 3.010325508388016
O 3.165703610001624 4.217110378356377 0.7398794094764921
H 2.6383823354706775 4.882436318485299 1.1151134908878584
H 2.9337717281655125 3.370374774903913 1.158169084737905
O 1.5290794821565141 1.0302405722033525 2.9308933824109804
H 0.8822942326979667 1.0312729582911817 3.6472934512128163
H 1.0554412433687765 0.648188850708203 2.1211745891719285
O 4.494608429097642 1.2895264667617634 2.884131397377571
H 4.051216132841164 1.6164796968524973 3.648616417180856
H 4.733135977734348 2.0591263855086863 2.376704403875688
O 0.931926463428478 2.4519426532802164 1.3336613521202656
H 1.214899979382963 2.131211665214319 2.240884214615593
H 1.570366614200791 2.036341718967782 0.7672301102128805
15
5 randomly positioned water molecules in a 5 * 5 * 5 box. No. 54.
O 3.624519846094523 2.790556060287181 2.934209091945738
H 2.682331225831498 2.692412323604923 2.853206597138408
H 3.8874325581563838 2.7857589468605424 1.9935072662359168
O 1.5990684952263168 4.16145127909625 1.3751091699069584
H 1.4665871489848896 4.299896422493335 2.29806262224449
H 0.8090564810817271 4.554523749812793 0.9200829883189416
O 3.6408450184467607 0.27008588441025494 4.11665080585149
H 4.348496441396894 0.898823980800867 4.172355922219996
H 2.9450526728119124 0.7439560314817187 4.563616070612558
O 2.3453751558502183 4.610503900550541 4.363811975686275
H 3.3196506753506654 4.724028275676169 4.294113996941842
H 2.0188001943673823 4.926419702555473 3.5353713008583485
O 0.40694060891158845 3.463337895295036 3.7442673784466107
H 1.1880768136858197 3.633115240498125 4.337525254931084
H 0.6866044173836889 2.5958128455083544 3.265244942212188
15
5 randomly positioned water molecules in a 5 * 5 * 5 box. No. 55.
O 0.4368458052450025 0.30413294920560496 0.5282170397588165
H 0.6495981501446655 0.18890763408603414 1.454841259488124
H 1.1961548343822348 0.6821884178245657 0.19904885835269714
O 4.7165499040896925 1.159064082471502 1.3891545099828628
H 4.313855126708806 0.6724204366348038 0.667099228744142
H 3.9196031984654436 1.3079372330335564 1.9216504585208365
O 4.506379037513305 1.9732737668423395 3.566740019677211
H 4.273078520603507 1.1336291706369845 3.8044465048019784
H 3.818931928448284 2.2289950995368604 2.881711896663156
O 4.325206132335046 4.908372230818459 1.0659822826449523
H 4.908696198500026 4.247581606295718 0.9233420728184714
H 3.455772548514772 4.5367083758417985 0.7843745460285759
O 1.0586677559526936 4.152888738728101 1.1183131631710375
H 1.5089280594054153 3.671988252479338 1.8559478760969306
H 1.2555875878269174 3.6669107796521367 0.2757029366465791
15
5 randomly positioned water molecules in a 5 * 5 * 5 box. No. 56.
O 0.7353192856903334 2.9808524608152016 2.9167310356574077
H 0.14660432827005332 3.149872059490638 3.6557032415392055
H 0.17731038772724583 2.9972436228685706 2.111030323571211
O 1.3253230992550424 1.9601292916765782 4.064983604413472
H 1.8472788839508136 1.8543645137583442 4.797191905193963
H 1.950568461399721 1.891942266076027 3.3679131222214043
O 3.5209567516389906 1.3457995215820988 2.7783099232578246
H 4.1438322540027706 0.6805751533618492 2.8049193305705526
H 3.5098832397773596 1.577445696089525 3.769342814466726
O 3.5520652982402705 3.396003608859213 4.257326644469064
H 3.2803752509678143 2.860310865946744 4.972756761030588
H 3.2654396764599665 2.8920936221802465 3.491826509403149
O 4.335544454835395 2.903259350949984 2.3425973760005316
H 4.971634032341617 3.1556564660800075 1.674710342275136
H 4.363895806142409 3.6400762770956643 2.9596875781011005
15
5 randomly positioned water molecules in a 5 * 5 * 5 box. No. 57.
O 0.13392749191985076 0.31297942314267135 3.785193758728975
H 0.8151201326935498 0.09059084134959192 4.404113799320533
H 0.5522308953186071 1.0542328310511335 3.289222817965161
O 3.5040070992783203 1.8685794487493106 3.606815023551293
H 4.170217024041066 1.543738788401495 4.30609201856626
H 3.684097164437399 1.4966367491234431 2.7031145438059934
O 2.662898518888789 2.2216752989162876 0.5142028394092246
H 3.6120382557650412 2.221573953992122 0.5541400002882031
H 2.4108389236178707 1.6870725536050821 1.2892656251735155
O 3.392206257794206 3.9754975857469987 4.116534300461637
H 3.9336041158801587 3.5224865537781573 4.802951896012713
H 3.135745231517279 3.335698779435482 3.4885444061749675
O 2.345895226201769 3.6323956063410408 1.1453624278770058
H 2.8015554284456585 3.9336674146129122 0.3474745167969825
H 3.0412588709922117 3.6334812928395532 1.797053147251146
15
5 randomly positioned water molecules in a 5 * 5 * 5 box. No. 58.
O 0.956388713250203 2.6285959755603576 2.1506023572119757
H 1.047889007375551 1.9013605226215526 1.5728498728231928
H 1.4518411789170909 2.3157542606126436 2.876753615297572
O 2.6444006827421522 2.9524544025991806 1.3786317564052792
H 2.3701952854423918 2.8153103115115705 0.46879865859513337
H 2.745356356303696 3.912197646065718 1.4261722301927602
O 3.97264333627632 3.5722326080167415 3.532389585071371
H 4.525099356900797 3.940161648049464 4.271696671803001
H 4.510190828549842 3.915747920952678 2.8634511874533075
O 1.531432571101465 2.690167193692214 4.861327961898277
H 2.0351936274278044 1.917412910084935 4.678486471606179
H 1.5915188363231902 3.238195774455348 4.068893988869423
O 0.02787407647740603 1.7947832160820576 3.995700617012394
H 0.3409704574071776 1.2499942448930086 3.288203225548779
H 0.30076108661063106 1.2809310730719736 4.76409158055899
15
5 randomly positioned water molecules in a 5 * 5 * 5 box. No. 59.
O 3.2288736462074015 1.0103736883389614 4.73868533796465
H 2.8715545728527996 0.6794507948210236 3.906079472785618
H 3.422806942857399 1.948915429691522 4.662968190953564
O 2.297797238350108 1.8219561818085794 0.9336400834791286
H 2.029013496671324 0.9508342474057854 0.640236543197565
H 3.0192815768943473 1.9524555406666155 0.2879923541881436
O 4.452887396100053 2.7832857809034737 1.160573145042646
H 3.9084525859939827 3.5207468321374815 1.2463677677339506
H 4.597666751954294 2.729945131604608 0.18126328828975358
O 3.914534861731326 0.4406187901279085 1.8553166115496373
H 3.933724798357123 1.3029641418146982 1.3994434818869073
H 4.613159533870112 0.5382789024240872 2.4754992425671496
O 0.17689052503906233 0.6179973874796069 0.4581351635715736
H 0.9656622929803373 0.2411172293322592 0.04586306923160566
H 0.10187116726792289 0.18291892261131565 1.2999180240629966
15
5 randomly positioned water molecules in a 5 * 5 * 5 box. No. 60.
O 1.6020112393977497 1.716159685264682 4.678544652194638
H 0.883019158319019 2.3018504019496513 4.666412897641173
H 1.6244245840162352 1.2016249955543943 3.8170306891723396
O 3.044770977749947 2.8691204037720963 2.689531670011702
H 2.878024570565597 3.5553469282162706 2.0010803406774196
H 2.2086589889473003 2.4341820642680867 2.784122777350343
O 1.035317271680397 4.131331618131945 1.2435246374384712
H 1.5699972716086505 3.7635368095399566 0.49351448931009634
H 1.5024586334112753 3.888919104504851 2.0202995324664137
O 1.0107694284825626 1.7611367372567095 1.920666417370419
H 1.5893853336342807 1.9038602434602157 1.224790081038353
H 0.26088257897832945 1.2963468590954519 1.543891731082533
O 3.530436175531189 1.1096688358785078 1.5250493091967137
H 2.6086964053764157 1.0733082437407466 1.3278219334248242
H 3.906180804295514 0.2744043547157502 1.2772168888731683
15
5 randomly positioned water molecules in a 5 * 5 * 5 box. No. 61.
O 3.5941069290284213 0.6096913244500096 2.8361618536848257
H 4.29332391073328 1.3422464809479546 2.8717897383245443
H 2.8069962850035095 1.0791522843399366 2.514742138394512
O 2.57601107752726 0.21731710920204594 0.5323978834167148
H 2.336355738786225 1.0714007381455526 0.1480099760036626
H 3.4929374382294656 0.1993937324941299 0.694699330891927
O 2.410168941644601 3.3974958665984767 1.42425573394434
H 1.7854620605674663 3.7344462200284836 2.104226546526263
H 3.2097513151791306 3.8259001131358388 1.5146164824198118
O 0.7336223886524101 0.9945547141167732 4.182855116207016
H 0.09982852793799901 0.7757327198904428 3.5279666807606844
H 1.021042842175647 0.12895689867025484 4.536815344209903
O 1.9427776801424268 3.1587794301046888 4.128483606385145
H 1.6870601906999663 2.997449955084468 4.994794848022901
H 1.1726448963518983 3.138450744289133 3.5636658132790124
15
5 randomly positioned water molecules in a 5 * 5 * 5 box. No. 62.
O 1.872564161280546 2.3508613267162333 4.168013310621099
H 2.494878850511298 2.55943473791174 4.914380114467593
H 2.3537655405386073 2.4948587638173487 3.3447508764662213
O 2.415821561156704 3.3756540150743892 1.5206412370363132
H 2.265215813801702 2.3903979128309185 1.4322729446062665
H 2.705810097816536 3.6683468386917446 0.6423333375550726
O 0.8009763615352755 1.625944372931401 1.326115328482852
H 0.42151688675055093 2.1455556362967467 0.6212988923326794
H 0.24283577198623585 1.8917145024486586 2.104460828584214
O 0.8791907283419864 4.051247967073054 2.271033372011282
H 0.30878991039964676 4.186628856661792 3.033129572580755
H 0.25712496437643895 4.165975531994953 1.5382068942561018
O 2.1884448428240315 4.820471424216673 3.5668161170911636
H 2.796043306843724 4.230543510008877 3.1461756069028315
H 1.4618562404273838 4.829307849437405 3.0222482407016926
15
5 randomly positioned water molecules in a 5 * 5 * 5 box. No. 63.
O 0.5635356461682339 2.5082950972216818 2.066880797479148
H 0.819073078821449 1.7364227377235775 2.5353845564349693
H 1.174948923228718 3.19508895612221 2.229398768898698
O 4.258814694951651 4.621944336116075 2.8696527525198476
H 4.209916521494714 4.07438377255914 3.617254752452528
H 4.479144636628226 3.9883716377008316 2.132026074331771
O 0.9291297082932076 1.7806321624625636 4.476544306664833
H 0.3002802180911507 1.303646932782847 3.961210002611652
H 0.6051476979351972 2.671546412085708 4.400944759939829
O 3.0129783790972997 3.0287461523603403 3.3778497608602254
H 2.3363259274319117 3.7118345010342426 3.4596267249553208
H 2.68028648984507 2.456413894683361 2.674723703370806
O 2.1878136727045163 2.036298922936737 0.46401792758314686
H 2.697677195746716 2.7905893551716887 0.7558826290505629
H 2.510491743656508 1.2921876257287406 0.924243684906938
15
5 randomly positioned water molecules in a 5 * 5 * 5 box. No. 64.
O 0.9922191145907089 2.1980370352782233 1.4844067925532534
H 1.6558730556234789 2.556439249837807 2.0765761283952315
H 1.4481765417799703 1.5805010525707737 0.848975223564477
O 3.2207059875263893 0.33324592406408504 2.657117123143257
H 3.0511521119801817 0.8598379984874314 1.9056299319676966
H 2.3325892721439887 0.20035117170827596 2.9125029564263993
O 4.157008086281891 4.596797472919475 3.7440513772496904
H 4.465117943116707 4.190892835466641 2.8922964209012973
H 4.807156801597836 4.320244292732173 4.3861927726291805
O 4.035890624406608 2.3673053491197873 2.4572275719977243
H 3.445898809685316 1.7592239221886687 3.015684338801823
H 3.450967404351675 2.975713221232856 2.0793996364439287
O 0.3004830251065138 0.602108069061999 4.223537267120491
H 0.827339423420293 0.7965373407831167 3.501346582726149
H 0.8923703053725339 0.2471480442482749 4.876128027788182
15
5 randomly positioned water molecules in a 5 * 5 * 5 box. No. 65.
O 1.161966241541308 1.2396677416096302 2.00526229348543
H 1.3683583734164346 1.7228333694055589 2.7568199120865735
H 1.209689035026178 1.8946977018886564 1.364126845245716
O 2.761463425135739 3.93379325594538 4.135217778401065
H 2.1728482619780554 4.113343028699674 4.837315536574809
H 2.2842448110958764 3.4215180836961454 3.5541019702415864
O 3.5173898148362213 0.8201114244594598 1.8404277461090728
H 3.237393161580995 0.9192909684146777 2.793338854153516
H 4.4649755401922535 0.8410371597962847 1.7837270528794176
O 2.853148834494406 2.7731957427801768 1.0901411308722926
H 2.946111016187876 2.194341701681516 1.8155523480953706
H 2.216769182360835 3.419398776765904 1.4161077162119842
O 4.355324625221439 2.8234888860412237 4.176242121274883
H 3.980112738476144 3.5634116175242916 4.732016772523428
H 3.6881239733870608 2.6684766828651014 3.48478884938437
15
5 randomly positioned water molecules in a 5 * 5 * 5 box. No. 66.
O 4.394578756393893 1.0927619052238036 1.4102036049314743
H 4.418103681355619 2.0078624017355597 1.3881226339535029
H 3.493763752077629 0.9568610069765918 1.4711167174191282
O 1.7469964874772885 2.797823329329882 2.410435624356463
H 1.5534252999407108 2.7246873696401455 3.3545420529240033
H 2.4334865244625115 3.4028631450682294 2.4422524268849934
O 3.9298061618656126 4.175796842936047 1.1873436081790567
H 4.9257035441627295 4.162070506200164 1.2931227807422998
H 3.8362902354024584 4.7666923149693865 0.4724988277420922
O 4.127972421056955 1.6003865699388664 4.926439103778765
H 4.417673988737843 0.8003697930867046 4.484915010390071
H 3.254554010081294 1.7196152566762501 4.514555928391833
O 3.2710591490274226 4.692487679259613 3.738746679418419
H 2.923984862434076 4.982138726092614 2.9164478308410473
H 2.702881360153651 4.9944545553608295 4.515758274548645
15
5 randomly positioned water molecules in a 5 * 5 * 5 box. No. 67.
O 1.831950111496647 3.069181593686175 1.3094550177678643
H 1.6898017952283864 3.7699251221938885 1.9762523346549217
H 1.920428297515753 3.467376422138854 0.43822494963864556
O 0.9000987746308226 1.1066241989186354 2.8803102819585815
H 0.7986221196994956 1.173953265459566 3.8844544550225315
H 1.0464647603805477 0.19427332769087835 2.7486875749077426
O 4.848653820503013 2.1041031880602117 3.6340839772688476
H 4.72656719928366 2.7449201054814023 4.336083856339994
H 4.031503984750316 2.1816490125498507 3.173539711864796
O 2.643897763597955 1.0280402147856567 0.8801466664954272
H 2.3706771508571154 0.9211100152649024 1.7313183531245382
H 1.853035784039185 0.7154106039530062 0.3768519223022513
O 3.5749373152456023 0.09788905552427452 3.844899128990698
H 3.733616153040284 0.4045711993938895 4.757009400189646
H 3.5442215761676867 0.8580868624676703 3.2749279174098667
15
5 randomly positioned water molecules in a 5 * 5 * 5 box. No. 68.
O 2.4011602637413625 3.3712315223982623 4.058980052734932
H 1.8978400311283044 4.073032356747799 3.658178430318752
H 2.337892700911782 3.5565825182904347 4.921725633632629
O 0.4501085352286982 4.093558804861937 2.2159952576263104
H 0.5037240273624446 3.9736649970874436 1.2621638545805804
H 0.29545067637309486 3.204230488309124 2.525399686659027
O 2.011473356272458 2.460044682050166 2.0799232029999537
H 1.688189736196228 1.5628552072639645 1.9777847526812982
H 2.963790357777465 2.2856965105067935 2.3014152035096322
O 3.432224826412886 0.7618377202326199 2.095392336165167
H 2.880447302020941 0.10329475181566672 2.404847999628707
H 3.014316371716192 1.1623318713520387 1.3811669534226154
O 4.26047586308617 2.908357367182237 4.117703977730633
H 4.758476099737408 2.608355365530286 4.884928386963634
H 4.812417893550332 2.6530240247831323 3.4328521458633654
15
5 randomly positioned water molecules in a 5 * 5 * 5 box. No. 69.
O 2.389977397799125 1.4864582329168847 2.945019077415005
H 2.8808684159199367 1.578653617461649 3.7319782875363274
H 1.9420887939224163 2.321275576679689 2.79251386910347
O 4.097403003047635 4.856133319371994 2.168228936721359
H 3.313899105770817 4.734379715582953 1.6669453742870057
H 4.482918098614278 3.9900848463766017 2.112353178743187
O 1.329603098197813 0.4973685028150704 0.7355815576569574
H 2.309326332521274 0.3627531150789733 0.5847975122706335
H 1.1846289533634222 0.25560195023344795 1.6786239498459874
O 4.615658643335258 3.0155228331748414 4.272816736210097
H 4.325893405263312 2.2062999870351705 4.558581032605199
H 3.9250304155569693 3.616649751323007 4.540813872963572
O 4.106690111415147 1.8243596800208812 0.648486623319019
H 4.7119934596748605 1.057732334506013 0.6433360221771083
H 4.28540843504842 2.3088097270322105 1.4911222091028016
15
5 randomly positioned water molecules in a 5 * 5 * 5 box. No. 70.
O 0.997666659635752 4.813801744736016 2.22255502499404
H 0.423284393491544 4.139782553577075 2.388682777982729
H 1.556614251145321 4.873957085921587 3.0376534749971222
O 3.005213792014026 1.6724364611053388 3.542280477555229
H 2.8296437476167164 2.415117885926959 2.9473025614198436
H 2.780483972577036 1.959892783493301 4.393864674078516
O 1.5560625146850877 0.8310358547325936 2.3689483075645557
H 2.372998437536108 0.8834094167881179 1.9473857910401406
H 1.8840063282143102 0.893686400197275 3.268081623284173
O 1.6324326726341276 3.521996362991195 1.6924266685799672
H 1.6454464678878853 3.2748774380178056 2.5217701917617665
H 1.0659910440847438 2.9672277813851777 1.2932339419641314
O 3.622767544809127 3.4461613375878084 1.2776631686495554
H 3.458746885434605 2.440743807787488 1.4983237085602017
H 4.4129827992265 3.6296942020543774 1.731854777265958
15
5 randomly positioned water molecules in a 5 * 5 * 5 box. No. 71.
O 1.6320127310695243 2.4247322916193244 3.5678225561404995
H 2.405987435462592 2.8106156496956385 3.8860985375182975
H 0.8710762797075047 2.865427251226828 3.9802093647207246
O 1.152517995135069 3.901808238706522 1.1047426172525932
H 1.5148544767967012 4.801565481079903 0.8158417981880856
H 0.8662690767765591 3.4631609472341323 0.2736701732051534
O 4.813954106398762 3.1102850074491735 3.987347230511535
H 4.527972973258545 2.257915508771543 4.196202619453932
H 4.555198693880996 3.3144373019063496 3.12860744314519
O 3.272311434223502 3.502585135747491 1.3471148228117424
H 2.821767683368294 2.941767791926475 1.9750401324117806
H 3.5693982354054197 2.8920092563149815 0.611156942664616
O 1.8999512098327216 1.3427184468650482 1.3751382266046475
H 1.0880039694895216 1.1251170936926511 1.8705335265315517
H 1.610012765794198 1.5686596765212308 0.4593435935980533
15
5 randomly positioned water molecules in a 5 * 5 * 5 box. No. 72.
O 1.2358880736874855 1.6489635785596017 1.6443264938581736
H 2.1042252334602 1.8791505936962272 1.903046793829035
H 1.3884221107880574 0.7824945607568099 1.384779229857576
O 4.990541510659135 3.6513378208375085 3.337797426024471
H 4.666031132525684 4.001683118808608 4.245329570668832
H 4.323362818996893 3.9346029565767906 2.753841369337035
O 4.7297591253410145 2.170845150235266 3.025814588830937
H 4.925688131158795 1.4050654631623618 3.631377207268511
H 4.594384221923691 1.7430171982388567 2.1457218464799546
O 2.0928377941078287 2.5746026066861125 0.024019194154846213
H 2.039586460423112 1.6579811543238405 0.27578562694814734
H 2.9980087261477353 2.9117125882114756 0.3506215066064685
O 1.2150664440596564 3.2075428397944314 2.7155162560770982
H 0.4808462639133986 2.6326028102046033 2.9411982126124525
H 1.9704933451753042 2.878285480019286 3.2888610842360757
15
5 randomly positioned water molecules in a 5 * 5 * 5 box. No. 73.
O 2.518325108687269 2.7794111923133586 1.9013750777173
H 3.2840832739611328 3.158527802098291 1.530315158734881
H 2.472183482238963 3.014421968264957 2.822235756887663
O 0.9163222999155923 2.075806200761577 2.319365771921766
H 0.9692497210278861 1.11433686615659 2.386176037206466
H 0.8099421914469103 2.42163435516201 3.242440692937229
O 0.3696501517836309 0.9100665046019296 4.216347587659514
H 0.15385000455232503 0.15298728721869237 4.79719699599338
H 0.13407505766513342 1.6725763463388992 4.690741288930279
O 2.4290601470482276 0.8240712708574632 1.3197838449692956
H 3.2515474454594964 1.2265141479815576 1.6396784681500147
H 2.016036236445995 0.4697835296894838 2.1209314473281378
O 3.9649985411830384 4.519718864770892 1.090818528432032
H 3.4593426507319913 4.708782562761807 0.38272720091616685
H 3.360436889534918 4.722754612800352 1.8389654823622044
15
5 randomly positioned water molecules in a 5 * 5 * 5 box. No. 74.
O 4.424338075477647 2.179557288596559 0.9209855380366988
H 4.149701617129514 1.3180610036047113 0.594121534772066
H 4.98535347973034 2.043357225741236 1.6815320839764176
O 2.650068334163948 2.7029326544495165 3.115139595571473
H 2.4736900317859583 3.240678292700622 2.3254873621739565
H 2.452875474444703 3.2790896062579264 3.8359874396088243
O 2.5035856408349018 0.6728631399366397 3.846066272449985
H 3.132770469718516 0.5455613380327069 4.562182128411747
H 2.6888272057236686 1.513278503903969 3.504330831422314
O 1.0815865668077451 1.671446715025389 3.868721420434267
H 1.1972750690329534 1.3894644264164024 4.773358722355102
H 0.909692468397242 0.9099829613186257 3.2899336785666984
O 1.2664159527958418 1.2021659454338407 0.9546823439715074
H 0.9026301658160799 1.6679568242722644 1.728306570923012
H 0.7204691506696649 1.5381376795441848 0.18714638996424382
15
5 randomly positioned water molecules in a 5 * 5 * 5 box. No. 75.
O 2.372227091235694 0.8530045773618439 0.8914443230807795
H 2.8483981860982706 1.4174547187917232 0.2877099134660106
H 1.472144158104037 0.9353700743354314 0.6784301557703216
O 3.801011118695329 1.4668470022765963 3.0074940304468
H 4.035804240149172 1.5204609350008953 2.0761131821250127
H 4.495301423481225 1.9160749657261256 3.486828889847527
O 1.4503712504632427 4.749737046084168 4.099960658168204
H 0.9403720765550624 4.569297392329557 3.3019619587233144
H 0.9589490932786022 4.511954959506239 4.8909391249797265
O 0.04462393471660997 1.784196402961733 3.6651836798000486
H 0.2810879172222427 2.2141909068716537 2.856748711748816
H 0.9226259164845523 1.5393931600408077 3.9926352852446216
O 0.9134734711791787 3.7455782959043344 0.7445349799293882
H 0.099550050460539 3.9394299930881007 1.323463421739575
H 1.5716528406137429 4.472343161614063 0.7388109183899303
15
5 randomly positioned water molecules in a 5 * 5 * 5 box. No. 76.
O 0.2157943077818486 2.2193548548751716 2.1785807669893815
H 0.03787230429754662 1.4919336242870689 2.7502549249104433
H 1.084541505696107 2.376317800401824 2.155812273972931
O 2.7520605741602093 0.01636583804273173 1.339256243117064
H 3.4685187860205287 0.3671171457889344 0.808845095904364
H 2.1530807855870333 0.7586356973113674 1.3108775307119314
O 3.3542687698373754 1.25876539580362 2.984982732036655
H 2.383591370035954 1.2866749032908265 2.839583285036105
H 3.5665844269287033 0.8865806515015663 3.7553228330522064
O 1.2885045375822175 2.159368477500217 4.2404876500431365
H 1.2890797907354103 2.8178273669072373 3.5294682389577314
H 1.066210039481292 1.3151556396170703 3.836672068651871
O 3.6374346245604148 4.611410211955983 1.491446615389083
H 3.877865089517193 3.7018127389930138 1.1639253797371998
H 3.9695098874216748 4.6480315321645245 2.38939522998732
15
5 randomly positioned water molecules in a 5 * 5 * 5 box. No. 77.
O 2.74373257926909 3.6264361585549745 1.6522003166442378
H 2.7907513700082607 4.218885317756432 0.9080504730838728
H 2.5620063201601915 2.809276481940964 1.23751053331738
O 4.081933997508703 1.6925832656396478 3.7458696582013165
H 4.689853155917456 1.3757660941294274 3.016270457081347
H 4.683119362978305 2.0452052383165373 4.440277019259548
O 2.161715945007029 1.1960403003974203 2.444839602009318
H 3.0798893590172063 1.0558679326434235 2.689920954957849
H 1.8130271244389697 0.2804163809274729 2.2325712233649
O 4.548637054943835 0.5754535981797065 0.2878687893092413
H 4.82764618608411 1.2115561536249784 1.0350500801102311
H 3.667375591025298 0.8622839936405948 0.01313213322672907
O 2.187728676668534 2.935482153055321 3.9865217144066505
H 2.5884185053657593 2.0929928470861743 3.9710003679301775
H 1.6744335842492468 2.9158762254140784 4.763362651601671
15
5 randomly positioned water molecules in a 5 * 5 * 5 box. No. 78.
O 0.8189520643482334 2.9924070719158777 3.7298798108410813
H 1.0591829492070841 2.6022146847614294 2.923097149373721
H 0.07298210110688574 3.536791354906637 3.526623780039589
O 3.0971355463189187 1.3287499520447599 2.5455554645408753
H 3.4435729562806814 0.8168375542242367 3.335996273158842
H 3.4484032344391364 0.8487465330201618 1.8031093031254857
O 3.159513142351997 3.442889121283308 2.5547781842949115
H 3.7615394056538243 4.178763449825301 2.786988769413894
H 3.713634575224054 2.9877351788891544 1.905410426376744
O 1.377456205278826 0.6399703497652193 4.502017633443546
H 0.6284554053366761 1.1000953085179987 4.094312577606226
H 2.1229344559798307 1.187586869042426 4.405680209120682
O 1.6335415495862327 3.5353989233722687 1.6212021644296493
H 2.2995668383837047 4.141323281650567 1.376768102853887
H 1.332427897703921 3.2173063618084567 0.7648838961505617
15
5 randomly positioned water molecules in a 5 * 5 * 5 box. No. 79.
O 3.2855496607340258 2.4291601156469005 1.0596512303307137
H 3.116820966737973 3.0022575083928222 0.3285902337185891
H 2.759553891813188 2.957856586720699 1.7117570206825303
O 0.386455004993963 2.561674716391183 2.997939494238218
H 0.01418662576933627 2.1955757000443423 2.1373952089349224
H 0.9780927109888582 1.9255248578982627 3.2735269471974155
O 1.3557111289421853 0.21172482252906577 2.146793083903475
H 1.7856186786937067 0.04559237733900717 1.3136637558937352
H 0.66834876121586 0.8780223652565033 2.0072382384119174
O 0.3605851031237428 4.6327714567794045 2.2152099429639005
H 0.7025620807721897 4.022212741952601 2.896476139777797
H 0.636299979120122 4.114632893066345 1.4571510798940541
O 3.9593543159603377 1.7573111071965326 3.538829789021646
H 4.754855265745521 2.3491372475600283 3.684829097381318
H 3.2418984149127392 2.2855256161702995 3.982394089118122
15
5 randomly positioned water molecules in a 5 * 5 * 5 box. No. 80.
O 0.9883845821261084 2.220846738747672 2.4031424153245284
H 1.6103796062909879 2.5610805523775055 1.6953135161810517
H 1.5709759724745505 2.469006076025879 3.212961562926128
O 1.1453024712644655 0.947229840742238 0.21140869079941615
H 1.6444111757438054 1.3882795147164808 0.8742752939585663
H 1.148975370554165 0.09579981259651715 0.549495435877522
O 3.4343602093085375 0.7684286255093692 2.3900411596188356
H 3.128340284169513 0.3954032076457136 1.6186260913813788
H 3.021576507167464 0.43958773400486406 3.1845722707855835
O 3.5323909876734048 3.741311668548968 2.1797444407663615
H 3.8891724219626513 3.1513666197309793 2.864508047662671
H 3.897812935801149 4.60878360929084 2.403892572391046
O 1.3050653133865247 4.261549595528639 3.1709459922200596
H 2.0301459438273612 4.752447060394768 2.7094901179066895
H 1.2550864606594563 4.618456393879285 4.025601773037555
15
5 randomly positioned water molecules in a 5 * 5 * 5 box. No. 81.
O 1.1120952011164715 0.19541526071632842 0.7726945493910015
H 1.9285851024430785 0.7197645997606174 0.7309399153807571
H 0.4299686829498526 0.8591322120916088 0.6336497768457539
O 3.601290812752718 4.335307045184676 2.217130986567409
H 4.44917605515359 4.685237762004429 1.811788536707426
H 3.4869721390815753 3.45203226055276 1.8593387055916617
O 2.1062575081026007 3.4330380686041844 0.5674467335805555
H 1.2701911872150742 3.3541244547186486 1.0314962466223223
H 2.2889653198546216 2.479553711529503 0.3760938083796572
O 0.9694114373364271 2.0687813082760407 2.3183693642242713
H 0.8896711601472314 2.528779444700131 3.1346408223095765
H 1.8595467688137823 2.303028932808182 1.960715415594033
O 4.419520513793251 0.915295289154589 0.581908978068395
H 3.958834971795485 1.738448763354584 0.4497044989354319
H 4.438661768403815 0.7951737102458201 1.5613803225452503
15
5 randomly positioned water molecules in a 5 * 5 * 5 box. No. 82.
O 1.4918996162082931 1.7643041744146077 1.0520494416809123
H 1.8250353641795674 2.17277714354775 0.29246144143257813
H 0.7024834703135501 2.2456768237551907 1.258417346864659
O 3.1864394495985437 1.278217691475609 3.1777363103367384
H 2.736450866930303 1.4710884104467314 4.054212516753423
H 2.8014659415677703 0.5219184414127029 2.7907266381918885
O 1.64530547584265 3.9104885452420346 3.3051693293188054
H 0.8227945706202339 3.467551987356831 3.343306739120422
H 2.0422143899128224 3.500340245586444 2.5157920313029623
O 0.6350873167295507 0.6494671611867248 2.717462244597608
H 1.5222503576825344 0.3792821463510239 2.966655255430375
H 0.4326522073135748 0.130540986084127 1.9934563668931014
O 4.744333052828432 0.5712665067706851 1.21491284112544
H 3.833499687297973 0.4225014854838896 1.4453651384473636
H 4.7936888882369955 0.8718007631180789 0.2722215688792011
15
5 randomly positioned water molecules in a 5 * 5 * 5 box. No. 83.
O 3.774217666783286 3.6462681410594415 0.5646786165264572
H 2.8957010661158216 3.9337379777929358 0.3125381961388397
H 4.240366682508608 4.446335750903538 0.6293956568471384
O 2.1532154713409843 1.737341713896026 3.7373346109323764
H 2.683911739922875 1.2491617892051048 4.457476078170468
H 2.026378467333275 1.0798470442693753 3.051859508148744
O 0.5918059475501619 2.096291308216616 0.9950554096756953
H 0.5823155821636851 2.8292521259127827 1.7363558206547023
H 0.5464291200825113 2.604278189051394 0.17703948743647058
O 4.175962781584736 2.30227676795102 1.8824086618199254
H 3.3821496470657415 2.5062217952598203 1.4398569936930041
H 4.743238748742333 2.05168844048612 1.1526975719818673
O 0.008613151355438275 2.529190659585309 3.823258645818407
H 0.6541182208665359 2.6794686405839006 4.478352537516512
H 0.07544994511333031 3.2738648830337205 3.20075883031696
15
5 randomly positioned water molecules in a 5 * 5 * 5 box. No. 84.
O 4.337726647931798 2.3691614764025304 1.5835150444645745
H 4.479198994353634 2.93975743687876 2.3796308854698953
H 4.477546657068163 2.9959869748398678 0.8162942651888628
O 1.6204699697367386 3.59923183024263 3.7447733910078966
H 0.8908274131464156 3.589632375821543 3.1967624679090347
H 2.37703070092258 3.6741962392396896 3.203838072210993
O 1.502008417652168 4.3790835032250985 1.821210264959846
H 1.7665507307237407 3.5404640330007098 2.163206374427851
H 1.3506230677486537 4.1732949823183585 0.9082022892000319
O 2.048379226257273 1.2506333993381502 2.5644690862927026
H 1.4984630900803275 1.403654065879564 1.858296350348129
H 1.5066018489620054 1.4182034882325854 3.361096439050499
O 1.1740273479106826 0.6741431066660358 0.5116123630358699
H 1.9689147138502867 0.5507863172578993 0.05522230322437993
H 1.3176874791313804 0.27323674672442927 1.3244016970093264
15
5 randomly positioned water molecules in a 5 * 5 * 5 box. No. 85.
O 0.47052151165184186 1.5841926232877468 1.0188444484433985
H 0.2511397749960602 2.4186055810046763 1.4826042797387111
H 0.5502225628937429 1.8868257122788503 0.22207154128350637
O 0.9069127487233475 2.585539620172823 3.076730390830983
H 0.3451112795114196 1.9437928668596598 2.769598388939678
H 1.063563198021531 2.2652966321638925 3.992314825366515
O 4.739819575129892 3.928236077393824 1.479260934134451
H 4.037243961943088 4.422614066748887 1.061511752709892
H 4.852007577222214 4.373555185693049 2.3023126547719293
O 2.889425315440572 1.1592395638685642 0.44454042252277615
H 3.2765779857457242 1.5966511479339338 1.1520828729167127
H 3.0621027091735975 0.2259373576779269 0.5821900407378613
O 2.1083500074875747 0.7607933784402038 3.5113206833797586
H 1.5333925261543677 0.9140627877755267 4.314228694918992
H 1.7858418255368298 1.3522322895712864 2.8196458202284735
15
5 randomly positioned water molecules in a 5 * 5 * 5 box. No. 86.
O 3.8232664280874875 1.2074369431088567 1.7132328028942567
H 4.326311449992485 1.6321679382434833 2.353354826473406
H 4.36601935411705 1.2839657655913048 0.9653528427208059
O 1.245021936185402 0.1806528339900887 1.1896482755094624
H 0.49654694244094844 0.7435747737940371 1.3303526974345647
H 2.054257986354776 0.7635804559973328 1.0216664338600108
O 0.4504762794217976 2.8838228172375366 3.778539851961459
H 1.3049159036075018 2.618458562179335 4.029799815627667
H 0.3583457424573299 2.6390948301486787 2.8308651702319687
O 3.0593526722577997 1.4718711774783815 3.777905430530562
H 2.6949052722492337 1.8920432481736071 3.0386321611153977
H 2.7389150749691247 1.9358242511138366 4.494663505879779
O 2.506905737280341 2.3040159981833668 1.2648354784351123
H 2.9089123121414238 2.070380013485513 0.452682127366268
H 1.5057211311366983 2.1781233913274045 1.1991081216081854
15
5 randomly positioned water molecules in a 5 * 5 * 5 box. No. 87.
O 1.6354358127157886 0.5045753908696937 3.6297781119846775
H 1.6620133413811211 1.1956294025515106 3.034212386584522
H 1.8937091445667842 0.9245688604199835 4.483491588258975
O 4.5423969533007265 1.7985790753140245 0.6832634969606138
H 4.557178519205754 1.046292639716839 1.3005013383519692
H 4.5269722136393975 2.5626175728126386 1.3301628250176452
O 1.1948188237161812 3.133980558248832 1.1420980186159353
H 0.29898314289514794 2.9173167649948053 1.4586037670192686
H 1.6171067596086732 3.626194289893845 1.8529273141243243
O 1.2543550712562528 2.4105653726093923 4.279688959675788
H 1.1214569113433805 3.0563554669771693 4.952652566257559
H 0.8274991345628564 1.6442694243715597 4.521444021070579
O 4.043947674591798 3.7255436915413522 4.283307804932465
H 4.038732933476098 4.431496111642398 3.6168074375342307
H 3.3745119361062232 3.8987375017492822 4.95166080465294
15
5 randomly positioned water molecules in a 5 * 5 * 5 box. No. 88.
O 2.2781100113647623 2.3308598792222037 2.3501387447804802
H 1.7831902429209776 2.2681518317515 3.1836219905603627
H 2.3200398965129327 3.2870966994048083 2.1193768911446407
O 3.7663040571810917 0.8458591236159102 3.8454768991306643
H 2.905468598773152 0.7324538968048093 3.3674037041816693
H 3.5377626746136936 0.8508755311551158 4.814287892434154
O 0.39641987569862813 3.686686646282907 2.248561859581782
H 0.8533492163420666 3.69151771305212 1.3572128140142672
H 1.1123514544322957 3.839279514686403 2.841947964161836
O 3.6976925163045142 3.8697054030793976 1.8012451664717748
H 4.233257636621453 3.3700305900768512 1.219001984143801
H 3.227314025835585 4.348691942754331 1.208788050966539
O 2.6155776458687194 1.4983589652315332 0.022372356277555183
H 3.3142267577809448 0.8435872949907457 0.05794341526403923
H 1.9837346616990423 1.2494054495907334 0.6812892738113693
15
5 randomly positioned water molecules in a 5 * 5 * 5 box. No. 89.
O 1.6092884781042023 4.559378355062535 0.24204685108378254
H 0.7577330750565063 4.080898140684555 0.2103028844129501
H 1.925942007760011 4.669842210138236 1.1352409581993828
O 4.472295055984909 1.8558908405934382 4.257448363991645
H 3.7079399774752977 1.4099739849272828 3.874046771961007
H 4.32946166953273 2.7573704640485426 4.275838950051261
O 0.7127953084331762 1.3820815396319914 2.9775328465691393
H 1.5190113654802198 1.1463414174656563 3.4511816728057663
H 1.0193499333934075 1.9809957861058674 2.243512430270845
O 1.430265479701659 3.5435851854727574 2.7205289297549
H 0.7645464174380935 3.5260154257077128 2.116018745664162
H 0.9480159943671775 3.86455219234534 3.4931293443483318
O 4.009433601174602 2.3483768504404265 1.5006053995370716
H 4.549336329662843 2.6580752515880093 0.6690609717625539
H 4.158681853552181 3.0256755096934866 2.222945919706508
15
5 randomly positioned water molecules in a 5 * 5 * 5 box. No. 90.
O 0.579806194627967 0.7008232167846545 2.569425163578378
H 0.6841632147485367 0.8610700814436409 1.6274730976745637
H 1.4352976317073654 0.2909458728650413 2.8238146184872557
O 1.9656303709107281 1.864683367080442 3.6771075579207375
H 2.265374270013387 1.1583254561368364 4.190823298516385
H 2.718795343384424 2.2844937391329347 3.3039528271773007
O 4.313393070277586 2.970984905486196 3.681503081047852
H 3.639136983609389 2.8859348019364863 4.358381720088555
H 3.83986172644498 3.514653800453023 3.0510128128468192
O 0.8591374823685094 4.171397831831584 1.7232387363191086
H 0.6172614640468745 4.295371287574529 2.5397329196285696
H 0.11692492923244946 4.416844047765709 1.1518568796186182
O 3.7586233294292937 1.3999048842826123 1.9466133510138417
H 2.853425457056871 1.091452020314748 1.6690406776134785
H 3.6029972775291372 2.3135079040895263 2.223568606870062
15
5 randomly positioned water molecules in a 5 * 5 * 5 box. No. 91.
O 2.6433961793784766 0.6717944412901028 0.5899232291952367
H 3.469794594725373 0.1702493380910124 0.6874309209565623
H 2.9070892567426525 1.5907409031999418 0.7302427213252924
O 4.78657394401453 2.8937664917072805 3.3404646022133173
H 4.05303041445194 2.3006832423066808 3.5808292673728443
H 4.614275999413094 3.0894890735433145 2.411022924898803
O 2.179900231045963 4.331936547263173 4.886953402231909
H 1.9134137745894317 3.4549227420444373 4.631729450793374
H 1.777650403465632 4.957229487306503 4.2519358789145265
O 2.668987424141776 1.4993383155646272 3.1212122967210214
H 3.5043203213255074 1.1024635434525656 2.951785670747051
H 2.3337143459240117 1.5324976543188893 2.2492678185404626
O 2.1791064837252403 3.124762449066338 1.2899660341719392
H 2.0188280430531456 2.996874983380524 2.2376156591781324
H 1.799879341953818 3.994624148394778 1.0524547114329632
15
5 randomly positioned water molecules in a 5 * 5 * 5 box. No. 92.
O 1.030215732378097 1.4749060485058711 0.7895267308735693
H 0.9391401568907554 2.0671854039138986 0.09495863474017663
H 0.7101224684144081 0.6377764017281298 0.4533522059091049
O 1.507989759022229 3.351067359540543 4.5504127193586354
H 2.1274016245007195 2.688181304512657 4.308440107331218
H 0.9208764773662218 3.355086107783879 3.7197845631356192
O 3.1350907260785528 3.4266565488606986 1.2459114882485067
H 3.074574181038359 4.380268889569177 1.3422384050211078
H 2.978159422291652 3.380990853960684 0.3252781488095491
O 4.08026621503614 1.9393921662434472 3.813766179961979
H 4.594570920810882 2.569003041708819 3.248272747511848
H 4.667399929074119 1.7829481487512915 4.557577710515347
O 3.851050509047571 1.2053957352095301 2.4652713899449856
H 4.716421992516539 0.7978650465972401 2.722006712653704
H 4.031611424769526 1.6048715712071684 1.6534847472993517
15
5 randomly positioned water molecules in a 5 * 5 * 5 box. No. 93.
O 3.390789672551873 2.458547097327525 2.2713114467000195
H 2.696737714966496 1.9645512837399417 2.7156401673661312
H 3.94927434138537 2.7062449647855287 3.0750178723140693
O 2.592980364907272 3.901801136757697 3.6011931443037692
H 3.4851892599758783 3.931179109758785 3.892211722903942
H 2.532909814727023 4.44217283051002 2.7927968578021316
O 3.9265427340882653 3.196896342532896 1.0056613984687712
H 4.789702184510166 3.090230757136378 0.6395805192273175
H 4.105915689652182 3.968841460620766 1.5227029244325074
O 0.5645582476441235 1.4026057222955701 3.2957282615610293
H 1.469672623845578 1.3361199470367042 3.090945993811968
H 0.2533190722425159 0.5154384201387242 3.346684169800312
O 4.180146014422411 0.7579547039162771 2.950662355988948
H 4.5816447416710435 1.6180126325841915 2.5590604600821925
H 4.205680389095389 0.7932621607119055 3.915962821669054
15
5 randomly positioned water molecules in a 5 * 5 * 5 box. No. 94.
O 1.777114936874079 3.0466341214658046 4.943921733134216
H 1.3468882326370601 3.272190527094211 4.117208551651708
H 2.6819337014889104 3.101056796083342 4.6371776199132615
O 3.23723919063345 0.9145284334211501 2.362747019615555
H 2.880287988700058 1.1088241531841976 1.4942195489149546
H 3.7488789400496936 0.10278298471635727 2.234747440246208
O 2.441855334824734 3.7837184886233413 0.9011659800292265
H 2.8103925303258146 4.388930886963625 0.3130797166952608
H 2.307656558860483 4.2901593974874705 1.7329666969506896
O 0.5466946748471829 3.7206328639157498 1.8104639689917923
H 0.41332965467651744 3.6324866145785775 0.8780616672682742
H 0.11484160907981555 2.908507286106259 2.1891477348781643
O 3.629845900734541 3.2872202255533622 3.345836398512594
H 3.1310548614736127 4.070779800934339 3.414847362610622
H 4.07785555310686 3.1107955490765464 4.116908054804438
15
5 randomly positioned water molecules in a 5 * 5 * 5 box. No. 95.
O 3.453491480425815 2.3253022305821407 1.611026286055906
H 2.8647059584781824 2.2286917711455323 0.8826753472308001
H 2.9367776707100632 2.091509884991808 2.3902007523205695
O 4.23264962470234 2.4036532669869084 3.9213041414557748
H 4.543659197285649 1.613149910484076 3.4994152321027525
H 4.59421996531236 2.231576866123304 4.8668618409612865
O 2.1830779128166666 4.672902533919171 2.0796248522460345
H 1.48871406812781 4.050113979485165 2.268004351811285
H 2.2311117827126985 4.773816978578318 1.109998863334949
O 2.974317123432684 4.499808122190457 3.5884734317134575
H 2.751303528167595 4.4306399606107405 4.462887772191902
H 3.2604107202224686 3.7025652248260097 3.2666646271145967
O 1.2811339203670669 2.272177828033976 4.05127350481643
H 1.8988990191597566 2.4629524160258467 4.751011707164435
H 1.91961369389723 2.1846861587294217 3.2889471743092655
15
5 randomly positioned water molecules in a 5 * 5 * 5 box. No. 96.
O 2.686421531341503 1.1119000920613131 2.469211650262335
H 3.573475470821619 0.7500749033294003 2.255971316219605
H 2.4364205333177176 1.6329655215402403 1.6731518649304007
O 2.2717020556835976 3.650060046320723 2.892456072771805
H 1.6397897219859643 3.0865423920712787 3.370118731199244
H 2.3698995568649055 3.3372442845697328 2.0759026882314755
O 3.5618712128852725 3.685601353458829 4.343083604642613
H 3.8216199628654652 3.896899194710472 3.455738784722147
H 2.9503520864499198 2.990645465116225 4.26991771548251
O 4.324703282465052 1.7103805352978074 1.3020680033337328
H 4.925773615530751 1.8544882027060798 0.5587611081234405
H 3.6087342456661533 1.1531132784500908 0.9468177461457734
O 1.648511202143501 0.281871604805658 4.498667363933294
H 1.1613385759984411 0.8791054908877689 3.937822654272204
H 2.3426778578212093 0.8436952713165383 4.850676133764555
15
5 randomly positioned water molecules in a 5 * 5 * 5 box. No. 97.
O 3.6141596459935825 2.6243418883992176 2.2966381027660883
H 4.312320698809808 3.2554523894241822 2.3785896712628416
H 3.6632199018793052 2.2737861376360122 3.212576438627225
O 3.7054011925572365 4.61537880501533 3.7756927608106445
H 4.0463780793527935 4.86294270392044 2.8461852679858026
H 4.551182622730296 4.444180535696519 4.069927225549681
O 1.1303606695839852 2.98142612600115 1.2433070665449302
H 1.7657249265712225 2.517093194969027 0.6841899427211224
H 1.5513309469173808 2.98372093891956 2.1597274659167893
O 4.000791150643233 0.3128019959166395 3.303110694239844
H 3.775252718225501 0.5262565801051136 2.378367011867063
H 3.201056189223683 0.4618906574157525 3.7918438859153056
O 1.443718614018531 2.9283345562920426 4.6015691820716125
H 1.1477146276147001 3.847740729187495 4.435402900247299
H 0.9490867174212936 2.3849705707162583 4.081123218348475
15
5 randomly positioned water molecules in a 5 * 5 * 5 box. No. 98.
O 3.969701960323447 3.6369842236372776 2.776084402531034
H 3.998673975492505 3.87016369486592 1.8416889487118628
H 4.183758080149965 4.445053114747373 3.167541828593627
O 1.4510259965488421 0.9950453754642985 4.008710045681954
H 2.0764072006365657 1.1969324323990147 4.758271480737927
H 1.724692150051682 0.0664370339381688 3.746036214237593
O 3.8657776146681093 1.368577064868433 2.3849680663577018
H 3.5765797685588767 1.0775011664835992 1.552817875998783
H 3.1081105049446416 1.8269220563410338 2.6524253484722573
O 2.204962820910587 4.146249805427552 3.9549553389185927
H 2.774719755955365 4.149762578698113 4.753751626887385
H 2.808698845617773 3.6608977068153408 3.393729578636369
O 0.6870138020165079 2.6976119422930793 3.725357328554364
H 1.2066208394186715 3.3607254539830835 3.4974273915023355
H 0.3116009180014756 2.9288858996343894 4.582764647825473
15
5 randomly positioned water molecules in a 5 * 5 * 5 box. No. 99.
O 2.4805148595911444 3.739841239680298 1.1684200635841107
H 2.6435047393918083 3.1725833500375518 1.9219283640307092
H 2.635505902345805 3.2083342831139694 0.47451517954461386
O 3.075567118170548 0.7963778708520752 2.0845617403129157
H 3.748506309469522 0.21734467742920704 1.7658514443965763
H 3.558982352348197 1.2052804031500037 2.872404601537532
O 3.5609279857842715 4.699301684016042 3.819301472753987
H 4.4142278466040805 4.3263130916985535 3.98613235696983
H 3.5412841449672943 4.845043243311821 2.8664424405747164
O 4.787158045364316 0.9876704738566933 4.175116910677822
H 4.77352930436619 0.07929804628893722 4.323914484008493
H 3.908156417483594 1.2870150323669107 4.47264525470044
O 0.17473727155048802 2.512904563380256 1.6199383118441657
H 0.48811484389899484 3.075688032670393 0.96811645955335
H 0.46202034399198705 1.6382152395907776 1.365839475830216
15
5 randomly positioned water molecules in a 5 * 5 * 5 box. No. 100.
O 3.5291583945174865 3.1901379330355524 0.8548463883749152
H 3.847341291346299 2.809390848145312 1.6728841079605696
H 3.9604936894211096 2.6699080144012246 0.08964337186096849
O 4.950761904213291 4.393114926088097 2.7366561113008188
H 4.342226560467852 4.243572201720128 1.9931485690916086
H 4.409620067019691 4.187112557488096 3.507885239717028
O 0.5731240702844187 2.9738137503368334 0.8767262709911267
H 0.8548380835470011 3.4808978231789354 0.1653608731095092
H 0.3573432880703969 3.6057483422233063 1.5541769451699237
O 0.6267621043113264 1.176749913389778 0.44702800037457635
H 0.38854396039850847 0.2810860706033873 0.6095715194428526
H 0.6609587021024756 1.6526360733133632 1.2803435543932304
O 3.3176238899916184 2.9817621333379436 3.4487546556192425
H 2.5132057190177433 3.441594547150415 3.5956080191470576
H 3.3229652443167326 2.177270878586508 4.098164441374694
15
5 randomly positioned water molecules in a 5 * 5 * 5 box. No. 101.
O 1.759150792923374 1.5827316171920836 4.426473666607932
H 1.1429883541366417 0.9124997377374707 4.772129148118596
H 1.3986876005934035 2.469902675146182 4.604598395875712
O 3.8345780400882816 3.196963787366038 3.8153956364270303
H 3.2535061596976975 3.139990924970346 4.540212509020523
H 3.256988690039942 3.012086032868496 3.007746755573636
O 3.8102854231839274 0.6813503003660715 2.4237032510604566
H 4.252099130647951 0.011497484626890708 2.9898724409931576
H 2.950171504746184 0.24323878521052078 2.2108719168670214
O 0.7424952338162955 1.8300526970697006 2.9152489479564894
H 0.29879560662002624 2.7012509384300003 3.1055067696635628
H 0.8516450688164671 1.7361992024918296 2.0062716755520094
O 2.1217842808132286 3.879915826462914 2.098920140158056
H 2.016285875441483 3.2003819053438254 1.436804930730416
H 1.3008562220872166 3.9017433069954173 2.476888902143069
15
5 randomly positioned water molecules in a 5 * 5 * 5 box. No. 102.
O 3.5654232695927974 4.216194726858824 1.752082694967172
H 3.7425078372599945 4.814657873443841 1.099477020325301
H 3.295507898629435 4.760026279487261 2.5545327374778934
O 1.288894433857235 3.176464535541709 0.20231119927497543
H 1.3921741269037124 3.6356478482953287 1.0054187209387
H 2.048271456666323 2.4956622768287398 0.18399797229737136
O 2.7491371319525233 2.4549823255731775 3.532445971043707
H 2.073521833390858 3.1250840731639373 3.8118424883591766
H 3.4466795049225567 2.5837167470100515 4.246490108556367
O 4.356391361057317 1.7746129021744983 2.73214697550007
H 4.339049217283391 0.8274333419037648 2.891950391649952
H 4.769606309793593 2.235936272898553 3.5098225470475066
O 4.026226838825609 0.3726919262487094 0.5178876362373286
H 3.1901095277331106 0.4048493043631537 0.9595093724059613
H 4.606309707390036 0.45593282547444647 1.2500135050589263
15
5 randomly positioned water molecules in a 5 * 5 * 5 box. No. 103.
O 0.5778554234691441 4.6762219641463 2.1718796143646997
H 0.20248801500598096 4.832069067432396 1.2885101076092154
H 0.23502990588346817 3.889793944934091 2.4285601244245894
O 3.782877152469239 2.575902291534653 1.8201107416979183
H 3.7846231592395845 2.670547863402422 0.8473948473129393
H 4.496823974993239 2.0006568121410266 1.9311397685898084
O 2.235848913742417 1.587669300388121 1.0606871232945143
H 1.7682785945115762 0.764341603062784 1.2118361891262819
H 1.8577037523068096 2.2529214241216597 1.7109260363949876
O 3.021769565137124 1.3659984309095567 4.061472492474269
H 3.3099683792717416 1.7604951692601434 3.257965611163943
H 3.1860208000079906 2.065616899102891 4.658673656994983
O 3.9147020646902018 4.182695360179331 4.305900450181552
H 4.292871483482985 4.843126384604557 3.8251596388822846
H 4.401655521755601 3.3910747831442816 4.117713690242559
15
5 randomly positioned water molecules in a 5 * 5 * 5 box. No. 104.
O 3.9476962923909658 0.3965315427756527 1.2905566564360615
H 3.121302239250915 0.3747805952330497 1.7992883401222701
H 3.648799562149916 0.597234722866592 0.40400165293688517
O 2.0319381463268837 3.1989137273342156 3.8584198752237824
H 1.2236447349507626 3.7126533345917623 3.636125518534202
H 2.5038133485877188 3.639094934923982 4.555621354147845
O 3.2307986002623985 2.9847641478828595 2.736781783883356
H 3.889020371732691 3.6541670740505054 2.8456017293663813
H 3.1248962439080077 2.4616651607483546 3.5492796786609198
O 1.0453163423079215 2.0172963199371434 3.8008475640642425
H 0.14638501089154632 2.243049915082905 4.063703226947487
H 1.458964751933968 1.468883945500313 4.500978897701019
O 0.4458135887039072 2.6791411830572933 0.9134996006143897
H 0.36249736356739526 2.1326378091395304 1.6681093749210327
H 0.3771161523101558 2.165119356823255 0.16114894989547668
15
5 randomly positioned water molecules in a 5 * 5 * 5 box. No. 105.
O 3.1766915156319344 4.205040565649842 0.3238887282973457
H 3.6344106101004736 4.6719233300127545 0.9666829605913269
H 3.7836019176293076 3.5146277914689574 0.0018162602452066468
O 2.6179935667197363 0.8311562111547699 2.5764343692952183
H 2.7237126136644156 1.7218016060448478 2.932389812767588
H 2.182651374045837 0.9750487273554272 1.8765749039356479
O 0.11457180636894992 1.5549919735381523 1.399998738453907
H 0.7565049468662933 1.5204176028136804 2.156479858633665
H 0.5890580552211792 1.3753423276526846 0.6202778951836775
O 4.355789593780442 1.2403772946215363 2.298364738669994
H 4.172005457848234 1.7850972370729736 1.5510184312775825
H 4.164313783784696 1.8228120502718679 3.090999647850508
O 2.870774630878551 3.2991497649655086 4.7477579272352095
H 2.308648140133951 4.096613995384447 4.891188473877067
H 2.245979420147359 2.5936295040753103 4.563200815980442
15
5 randomly positioned water molecules in a 5 * 5 * 5 box. No. 106.
O 2.907853828900086 1.8430154572748703 3.409596770542531
H 3.6840464595162072 2.1085466462848017 3.9638393581314735
H 2.549270417190211 1.1439379147147666 3.9204594490322657
O 1.1642859749746803 1.8856465041430632 3.628352425501253
H 0.9278406576008532 2.1516510148995076 2.7590640905464436
H 1.334407362322146 0.9696317586568544 3.5657022648435928
O 4.830021095240541 1.0729712558214572 3.1167197235894606
H 4.247954119516059 0.7466865130052491 2.4981855082934117
H 4.903688965949193 1.9851826951155092 2.81210308663795
O 2.6359090476657707 0.13329321842041164 1.088797568748221
H 2.6093145207215227 0.6722487667138418 0.23924649084183602
H 2.9527389914971374 0.7701215196535328 1.7285654352453341
O 1.952299984840039 3.1999695923939084 2.1683273379060792
H 1.7339388980982218 2.339007747978749 1.870738350188765
H 1.1416381474025077 3.695201397209516 2.195941611222355
15
5 randomly positioned water molecules in a 5 * 5 * 5 box. No. 107.
O 0.15115585256009034 0.3975108064024696 1.7724658760182126
H 0.5132349349532201 0.6209362896394504 2.626728940385103
H 0.7700277861188808 0.6298628459703217 1.0936490776145105
O 2.2446379397038885 4.787549412015329 1.1873393754580275
H 1.849254392203705 4.564974694393032 0.38483343263461856
H 3.138839885364926 4.557511456335136 1.0549448542112605
O 2.1965891516349627 2.6637854526886313 2.778391573636557
H 2.7765296409886195 2.517528073856302 2.042945987985065
H 2.7614720042954057 2.459625474291072 3.538113459322253
O 3.862240624825641 4.117507835787855 4.771603036937536
H 3.1743591313632957 4.446964141503796 4.130142457823939
H 4.179087515516164 3.240726117431659 4.493775947529148
O 2.9623024077011655 1.0449873887346834 1.4980077945080938
H 2.242289193198233 1.4017213495294927 1.9130827234002918
H 3.136952901772157 0.28486914274948494 2.0355382613209327
15
5 randomly positioned water molecules in a 5 * 5 * 5 box. No. 108.
O 1.3393307932136844 2.361224935722796 1.2503721249295097
H 0.7019827701566985 1.747833300954591 0.9887407121686862
H 0.8890438904330337 2.9163380714607183 1.879122400203447
O 3.812761009198155 4.760555853605897 1.0466623536191282
H 4.196030707355914 4.15087774064092 1.623535385790046
H 3.529605573337273 4.261346432146187 0.32723503249623
O 4.959513396611615 1.500477852669363 0.856784388875057
H 4.411453347819154 2.172532279528613 0.4648893703492501
H 4.9607719374346315 1.6520080432659412 1.8293558268293184
O 2.079013720190181 2.3660948052026893 3.2214553091377454
H 1.2850982899096275 1.9143513237849095 3.46896004373506
H 2.2118145536803087 2.197942768811197 2.2297226272080266
O 2.3144233181549003 4.193899408815312 3.0471149380549862
H 2.4894428924387055 3.611268917304189 2.3680539257043804
H 2.077969201099627 3.5671093073928186 3.713837118140651
15
5 randomly positioned water molecules in a 5 * 5 * 5 box. No. 109.
O 2.688568246454495 3.7231408469480205 3.3973875098760997
H 3.301132919934669 3.2728706998224495 2.7983922288191008
H 2.924664177215112 4.652611377875354 3.3687216010157393
O 1.0350988772054848 2.4202651204016994 4.547868017377407
H 0.14765678214386369 2.721724274254699 4.360969044832765
H 1.662889386241888 2.9393694524803435 4.028640703792922
O 1.8444445523996311 0.9865598716310636 2.849665821254685
H 2.6377985070654306 0.4307792590975822 2.671212722938471
H 1.4680089785324564 1.122415566075755 1.959987909552843
O 1.619550813676947 3.515103985948285 1.2449358407994455
H 2.064658169218019 3.8902049915527175 0.4634585003833468
H 2.311043550532403 3.729093759250491 1.974468069105297
O 0.23850576866581652 4.569279743636841 2.2764866495745775
H 0.7812509147651998 4.2396801088650875 3.0077479476700266
H 0.5847716745298219 4.277671603913448 1.477247685590005
15
5 randomly positioned water molecules in a 5 * 5 * 5 box. No. 110.
O 3.7566226883634366 0.8014608906368398 2.0832550987965592
H 3.273644237680176 1.3929366336190068 2.709974774973011
H 3.4150660546434333 0.9441573334435793 1.2474353394190927
O 1.2787204152827525 1.338072589909567 0.775622891758771
H 2.2226765762582144 0.9898327141930623 0.8951035280023845
H 1.041240507981874 0.9386995907356049 0.004533861605429124
O 0.6287007619781765 3.172967859275711 3.2904331680313437
H 0.37263057228246144 3.7484531317752947 2.574074929581805
H 0.843182333205942 2.4074646730863636 2.775866567893499
O 2.5427580935267606 3.337880679188194 1.5834947022048618
H 2.175860073015368 2.817174213071457 2.290854707484818
H 1.7949480811222172 3.3969805090948104 0.9289753914420537
O 4.902038134794221 2.5771260566401595 1.32566721619563
H 4.004517348245353 2.624764238615924 1.007349760510678
H 4.895359636083548 1.7274108234137808 1.8196731010580436
15
5 randomly positioned water molecules in a 5 * 5 * 5 box. No. 111.
O 0.8514131832947791 3.242392241390342 0.9931933191766384
H 0.5882995040582303 2.46678671689925 1.4766280485519754
H 1.3890673012340704 2.8936171260550405 0.24187446986011596
O 4.396890415612119 4.044264832075396 2.143704431118347
H 3.787777182920264 3.366077441524251 1.993437820431633
H 3.9000073694836974 4.867532011829734 2.033594106935925
O 1.5075771967233997 4.894166602601428 3.3854690227737154
H 2.0395705640511137 4.646011883292721 4.110473716893137
H 2.0225602883185623 4.6006106278616805 2.5863706906809805
O 3.661887817026046 0.2673586616686352 2.740636431322537
H 3.22732216944183 0.6810635883864796 3.482972306142608
H 3.0051056500956577 0.32166056651047503 2.084835193338568
O 1.501374522334042 0.5840111034492401 1.7009967510200608
H 1.9726109976170458 0.9163608982545777 2.499608854772716
H 2.0118568979221045 1.0030761520783584 0.9758042689817845
15
5 randomly positioned water molecules in a 5 * 5 * 5 box. No. 112.
O 0.8691690639001137 1.2993847320526064 4.714986760236335
H 1.4066315395260511 2.0894643723834756 4.928916344984631
H 1.4767021009628944 0.5169025292974772 4.726141338917886
O 3.9118826244656573 2.7001296285913523 0.7837303793380879
H 3.691539270799825 3.4210048961872306 1.3396680997084078
H 4.0173509074489635 2.0025873307544235 1.4227429712307966
O 1.153723162530353 1.1343802509780843 1.860553948430248
H 1.0814723857158413 0.9349118492664827 2.816757225121516
H 1.281814229995819 2.1398677565681545 1.784370814792285
O 0.5887236860514311 3.815684717180195 2.1675919472406315
H 1.1226098390428498 3.5441559319511295 1.416049649333342
H 1.1189404878787022 3.5497408672817787 2.9103017280732315
O 4.533105750691618 4.287152830623849 4.137922923811604
H 4.4115255904212916 3.435562731359525 4.600290788907719
H 4.351307715519462 4.095409879575185 3.1978005866371726
15
5 randomly positioned water molecules in a 5 * 5 * 5 box. No. 113.
O 2.7065639860919104 2.0544585008878347 4.783341679608785
H 1.7543279282856337 2.137915667944283 4.5184794431361945
H 3.1162844923914803 1.4842065962327031 4.103128861622858
O 1.8594338748146573 1.9297662425124544 2.0942618719599375
H 1.032116540487192 1.5948330911595567 1.9152109981257641
H 2.2663897550122996 1.1794901522445995 2.5748728559933216
O 4.883436185375009 3.5290077064376253 3.332967085568477
H 4.405875875344974 4.01925120417387 4.069002310008464
H 4.471063380183853 2.7225996279795877 3.2257243099315835
O 1.597753688837205 3.8881343891336617 1.1688712143291602
H 1.6562234140091534 3.4661838250507553 2.0447861182655416
H 1.8937980214361083 3.3518640930214776 0.43079160078776624
O 1.811065844770841 4.826640147023626 3.9824511979058927
H 1.5366321606687163 4.239713629770387 3.2743103304184706
H 1.1633640279046493 4.80606400777548 4.680778286956255
15
5 randomly positioned water molecules in a 5 * 5 * 5 box. No. 114.
O 3.3470527129940795 1.3022917128556606 0.7994541961969182
H 3.547375306590309 0.412883323832701 0.5142445955994014
H 3.472999942495817 1.2746425334332134 1.7397722907322049
O 4.292506715330955 2.5404615677372915 2.3085275017461298
H 3.923830385039734 2.9424715686819005 3.0582737924067134
H 3.7494006780768894 2.8223096635592855 1.5539516758109413
O 1.4476675372852998 0.9240720496093541 1.1913238218300863
H 0.9381671237023276 0.7291535113892215 0.4035386913253801
H 0.8359554129035024 1.3900731581170505 1.8987080204403535
O 4.460047213778484 4.3472611102227265 0.6213486840743015
H 4.755907536975947 3.4796015461016228 0.9828850996337224
H 3.7242957723607946 4.236268132936306 0.032026188570641545
O 1.9339848322650288 4.808117663313875 1.7020213560098618
H 1.218582291134184 4.751203414823386 0.9958785033699741
H 1.5195116769401844 4.761161679267576 2.5863453118437407
15
5 randomly positioned water molecules in a 5 * 5 * 5 box. No. 115.
O 4.462118125005472 3.910252787644805 2.0524109197004927
H 3.8120858771373825 3.173841403392194 1.990339642706243
H 3.9341170520121485 4.730011642352299 2.051757608969404
O 1.603504832667348 0.6850124574726107 1.185043382599269
H 2.132564745047595 1.233673670071435 0.5646627389304631
H 1.7919152737099986 1.0031869836243943 2.07447757123417
O 1.2889168866162963 3.0373956779434366 4.989257763338656
H 1.6119029185824334 3.717997004504934 4.493229818515839
H 1.1262720726766817 2.3276893325108587 4.364243243456285
O 2.5968913865562415 2.147079784708364 3.946758001926902
H 3.0105085861230823 1.7146294523005772 3.2449003994418346
H 2.7047036003481706 3.1105207524416927 3.864967521987058
O 1.7047815230492447 3.58690037381753 1.3342947993661163
H 2.359552976085262 3.3835594415738703 0.7501910478837439
H 1.979181217632112 3.2671843943972174 2.1708233446163288
15
5 randomly positioned water molecules in a 5 * 5 * 5 box. No. 116.
O 2.2485258786315443 4.2321765700723555 0.8153034772040813
H 1.376240806591976 4.159917077952612 0.3409742807799321
H 2.481931824349675 3.2675665283221393 0.9256015871074854
O 4.2119203758943655 4.710383006948412 4.221729249796657
H 4.3181344477753445 4.224415588387653 4.9981309369406555
H 4.851712692472833 4.369718139302468 3.5625146085365773
O 3.7722765169900634 2.000337495187297 1.0313626682301191
H 4.040593368410819 2.93739380505837 1.3201631852089366
H 3.549124208622031 1.5588144334594392 1.8628110375218714
O 1.893329239731854 4.764919230129385 3.664721849056779
H 1.5275488261307182 4.91139019656582 4.516186501082163
H 1.1719593653465157 4.335096906536108 3.2039263803510276
O 1.6942958236251497 2.2800980864370417 3.5994447020758606
H 2.506274208829786 1.8725708030155768 3.963745024665175
H 2.0548696000172813 2.601542250889962 2.791070494643641
15
5 randomly positioned water molecules in a 5 * 5 * 5 box. No. 117.
O 3.3328087713458516 2.1485387300410936 2.9534582772534628
H 3.816990000623949 1.4717331352580147 2.392320558469882
H 3.945480061684303 2.443094961282154 3.586562986977387
O 1.5240736119505205 0.9918194084443055 1.455237824096876
H 0.6498922164249505 1.3619215126323938 1.605903839154737
H 2.0925637312439935 1.564101671163788 1.9111725332157743
O 4.814147645779517 4.172060222241255 2.6653951911728706
H 3.906400203497243 4.098448828054907 2.894754123806345
H 4.890140941144143 4.575588904007413 1.8109250229623108
O 0.8106968625934735 3.4553903067798126 3.471017585678162
H 0.3068421923196736 3.129792845870731 4.207036468075715
H 0.3470204055727092 3.12784460176245 2.686407727090919
O 1.3002418488903478 3.8092823082244593 1.0985668113699265
H 1.6173521605966412 3.615488211459098 1.9392422555918598
H 2.1355594328975256 3.8466219128327865 0.6143875021910111
15
5 randomly positioned water molecules in a 5 * 5 * 5 box. No. 118.
O 2.7170396515225943 4.638800598886059 1.7214707470756512
H 1.8117376576895323 4.984405111364809 1.7979120285907304
H 2.635856925948755 3.86798717645454 1.1881583285189954
O 4.283084207117593 0.24356336044352722 1.5878180661717611
H 4.2849866189568 1.1877615080336736 1.6590350250257675
H 4.575013974030796 0.1094076508637492 0.741200185604855
O 4.0641855742208 3.4116085986539835 2.211308699439508
H 4.882954534097244 3.4824166564414827 1.764120857067468
H 4.340314746712321 3.21286391998112 3.1142947499070726
O 1.7214075489803022 3.9591767632447077 3.5929394041570175
H 0.8039205926684385 3.674050023498185 3.2912906848295953
H 2.133002626589518 4.39479151037015 2.8275741357723394
O 0.9032532390413806 1.4278976353783157 0.667775723013177
H 0.35353517681823043 0.7452398307273418 0.1886035177250006
H 0.6115856241842034 1.4689660204450097 1.5644498375394622
15
5 randomly positioned water molecules in a 5 * 5 * 5 box. No. 119.
O 3.7853329649953107 2.149094636284797 3.7823392255852077
H 3.555455878485162 2.296803337564104 2.853177484512644
H 4.536771563802487 1.4878631973608631 3.773470771365396
O 0.8706563239781678 1.726599485744379 1.4412539807911473
H 0.31856157046152866 2.430529535604529 1.6124659978407647
H 1.0018440502667878 1.2644089644261605 2.283294927621758
O 0.6875096929059649 3.901964834995115 2.4112549090696724
H 0.8569037896797254 4.433393051488874 1.647791950671404
H 0.7007420750206299 4.497782316601225 3.1453159457456747
O 3.701972603840481 3.2972661753170573 0.7127832942960322
H 3.1125425115152074 3.703794724817909 1.2992049515041566
H 3.575303631262961 2.3585855909854443 0.9315110007529879
O 2.133174926482015 1.1538528374938017 3.6810208934742388
H 3.0789137055112277 1.019319350386688 3.6037719044831986
H 2.0386820699533916 1.7065030585114815 4.389736033727162
15
5 randomly positioned water molecules in a 5 * 5 * 5 box. No. 120.
O 3.8850279370212597 1.042380808127823 2.8662997359728792
H 4.832443390449568 1.4705186372804817 2.9671336441617298
H 3.576528863370214 1.4284030572829987 2.0016904189787894
O 0.9963535678997726 4.008976821741833 4.231895167995271
H 1.4553710545793797 4.646896876223346 4.753038629829531
H 0.5778438978687448 3.4486193538730587 4.895144930755478
O 2.937547894874068 2.71339898591279 3.701685839658083
H 3.1867987696028623 2.648061748889231 4.622343912737644
H 2.374503424531974 3.465974378381965 3.6672842391309293
O 2.165803173224537 2.696866460223866 1.0342850981442409
H 2.9407531431684713 2.9711101113785583 0.4315438564670857
H 2.1638843972824264 3.372093375804509 1.7778496942299946
O 1.377715255543757 0.11785104672870639 3.874610218478989
H 1.8079112844651528 0.8650338168907205 4.186555841106676
H 0.5434223312699092 0.16346007774935 4.334187354154807
15
5 randomly positioned water molecules in a 5 * 5 * 5 box. No. 121.
O 3.9069309455683623 1.0459249524793868 2.2103456801829324
H 3.002463774996413 1.1287182358917178 2.4352048643258204
H 4.327779693482373 1.9057512533929195 2.2357222079384194
O 2.3840817364308946 3.490042633183252 1.040461273347875
H 2.1944123398962017 2.7289546644911726 0.5517861977302705
H 2.7702793957019547 4.084302803580934 0.4177863527458001
O 1.1856621540094818 0.5003598681833626 2.2783927860818705
H 0.5649324113541869 0.25375974391099376 1.6245817651738181
H 0.6983430453589501 1.1146593173315091 2.821270330533965
O 1.4209842901070757 4.156514496851581 3.9614602091682425
H 1.0979980250789072 3.880523189133225 3.047572203900585
H 0.6560042006679379 4.385009323756883 4.5013162270111104
O 0.9859363411181832 2.7713949207044357 4.423328431042136
H 0.1497106438060407 2.854354462778379 4.894643587477621
H 1.3537795097543621 1.975786286623348 4.7667804873418165
15
5 randomly positioned water molecules in a 5 * 5 * 5 box. No. 122.
O 2.8193215073211446 1.4787424149245554 4.521969536955072
H 1.9398381483401037 1.03151798918174 4.68189477466875
H 3.3138842095757526 0.7080019718118432 4.160446744132526
O 3.124823835229144 3.6451952719357306 3.099205847934262
H 3.0842767862677376 4.404069124415027 3.6825013299422733
H 2.726996206299308 3.965989444902404 2.323480229884404
O 1.472842573012797 3.8924105261283666 0.8196634637421585
H 1.3873492302508654 4.5225237310466495 0.043526539020982136
H 1.745746464620543 4.500426807262507 1.5299307231907275
O 0.9062108331974261 4.213653727544616 3.709032616026052
H 0.04947921253991516 4.50569018972883 3.5947412800332095
H 1.117000954517228 3.7612236862784245 2.867545286992869
O 2.16955889082222 0.5427595521604744 2.787357984788053
H 2.369232168129543 1.410098989075851 2.4197783956107632
H 1.3293105701892014 0.7192195398970749 3.2028674341118646
15
5 randomly positioned water molecules in a 5 * 5 * 5 box. No. 123.
O 2.1763518512351885 2.49740853417981 2.482539526561231
H 2.0100794306995184 1.5430824383442523 2.6948968393835333
H 1.5434181909824596 2.681476990816098 1.7407959596340825
O 1.8742468082470753 4.153409253090411 4.041061865684321
H 2.2824625567656693 4.4908063485301515 4.803142941714675
H 0.8970143012794987 4.160974687716045 4.233869317552258
O 0.1231413389622471 1.9435231853175505 2.990787034865024
H 0.1478993445830706 2.415056043378071 2.1647237607501437
H 0.17457963528827555 2.642879590123645 3.639403747296055
O 3.992925072250232 1.0140661685820807 3.117789329395309
H 4.005485983738678 0.9030234329278639 2.130571609371534
H 3.5499106751442717 0.24074820403570352 3.4425368885799914
O 0.8919455710351759 1.3668767037345924 4.270614715600031
H 0.6741884850755846 2.2104032428670264 4.676533704611917
H 0.058599976889394445 1.0879631280562831 3.96740074819027
15
5 randomly positioned water molecules in a 5 * 5 * 5 box. No. 124.
O 1.5328985466053169 0.317341553758792 1.002216838922931
H 1.6641933108171294 0.8851088529713453 0.2774646948177475
H 2.1014921844756644 0.5709029813219635 1.6034613847649306
O 2.0563879444915316 3.538490247961692 1.6916072505080355
H 1.963744298943333 4.244400531074665 2.29116204987174
H 2.317637533093741 3.938146433669392 0.9432953080507461
O 3.6715039220664627 2.532601984339244 2.9200237499497357
H 3.267782723227381 2.5933278905976063 3.81119788726694
H 2.9439376888016744 2.5841809454787352 2.3426666860234544
O 4.708447417871049 3.8734810131363187 1.621050222668408
H 4.946897507174107 4.505079134295604 1.056503369861603
H 4.84289753544986 4.312437741818522 2.4686351598396
O 0.059568324908185755 3.8997950041407665 1.7154840006524907
H 0.2990779204046371 4.683531007630998 2.2582603787990942
H 0.3241799852099831 4.174161468743058 0.867123030786467
15
5 randomly positioned water molecules in a 5 * 5 * 5 box. No. 125.
O 2.6730726484020995 1.9607473750762583 2.5943836430977414
H 1.9108450747056351 1.6632774098371574 3.0249158406584185
H 2.6221102650467767 2.904569620540201 2.620198828411653
O 0.9116276608917673 4.107819816241496 4.589268182298364
H 0.42250018919082843 3.3408885018851815 4.711666545181322
H 1.0337747009027827 4.168690820628441 3.6469028670717756
O 0.3442022598229294 2.7728688095626257 0.8191195467573098
H 0.7461923570641653 2.5443132559007084 1.7001754173377146
H 0.6714043720355759 2.2130199723876025 0.1771586501141551
O 4.772483235034748 2.72435934700328 2.291416143902913
H 4.037186561517119 2.5177372257844475 1.7482816566906658
H 4.849136102986357 3.6754435976321607 2.115481529931196
O 3.552884688321805 4.86672881612646 1.4179806943515012
H 3.795199661993619 4.023024184877232 1.0017885104081947
H 3.8455766418096813 4.84977771606355 2.3237087940262464
15
5 randomly positioned water molecules in a 5 * 5 * 5 box. No. 126.
O 2.8359278096086094 1.4382071315390554 3.183964400173579
H 1.9217328116643413 1.536559324606068 3.1099838974094136
H 3.0859086518394307 0.7110621409655735 2.590188072011326
O 3.6546637845039314 4.419018549213835 2.3454476081318503
H 4.223422492947087 4.161455431721262 3.0126816094030833
H 3.901548757543268 3.9204086255828337 1.603079213329996
O 4.156843771422302 1.9627612800952043 1.4094139617666046
H 3.6791385243844417 2.4548362235679524 2.070486373248858
H 4.770824383981947 1.4806855749278491 1.918075946460983
O 0.7180265706966821 2.9445833659141623 1.3742759645083669
H 0.6295618042171804 2.313871208080317 0.696157228098418
H 0.7970118349848546 3.7758428319085655 1.009290394044767
O 2.067575792628581 2.084922685027633 0.235684358279446
H 2.641504826195972 1.347619489035206 0.23359667928048256
H 2.6609883458960017 2.7717975876726455 0.21665400908241017
15
5 randomly positioned water molecules in a 5 * 5 * 5 box. No. 127.
O 2.275516737612901 0.9463752656985513 2.79752962865708
H 2.1240019225882096 1.8299055068692216 2.391954848701649
H 2.2742256049120324 0.3574626207555478 2.0706982629581905
O 3.2763973333518033 4.062046163190796 1.9695103392197693
H 3.756841481536201 4.569781100412507 2.598678313508473
H 3.0439687459804783 4.62907208184922 1.2646367328850516
O 1.6688308648303585 3.1427244445718006 4.544395645391562
H 2.551378941532031 3.1755104679404726 4.245649990440028
H 1.1384089687923105 3.299735338870288 3.764559110203942
O 0.4502206555493471 0.3981271957105881 4.576940813646729
H 0.6325517042610862 1.2357358829025746 4.986885562598235
H 0.02847144335024554 0.7902620475437546 3.815476527932999
O 4.9640710396913 3.5630526776538085 4.22870067257311
H 4.9300696466705345 2.6368685972475507 4.14629325536034
H 4.206449540988404 3.820533241394929 4.721166175889018
15
5 randomly positioned water molecules in a 5 * 5 * 5 box. No. 128.
O 3.112993671926187 1.4909858881778348 3.145370815274565
H 2.8673570026603676 2.0116877078791937 2.3744268453536272
H 2.8635905199691845 2.0096178730487853 3.9128490341563085
O 1.9946762361378694 3.413054077911492 3.8580090042755315
H 2.1924847097924154 3.9719351686399844 4.620544153990703
H 1.802989378960727 2.584641943426 4.195548690532995
O 4.28277083776754 1.1239520595754664 1.1879754916340528
H 4.598056776934989 1.0517757211729999 2.0734831028979603
H 4.6684180759228 0.35844370870270525 0.6723658735387361
O 3.3989962964293547 4.185366668725524 2.3965385760233744
H 2.6656526844892166 4.12916844026848 3.019922273834981
H 3.88466457994196 4.962307646522909 2.7046577719970717
O 2.773873771538151 2.8242171872362687 0.1321859222473598
H 2.09533192864931 2.803329119868067 0.7307459112020286
H 3.532735959407084 2.7406709471175037 0.6816435636150115
15
5 randomly positioned water molecules in a 5 * 5 * 5 box. No. 129.
O 3.864653680119633 0.6187347476847788 2.792229519312836
H 4.448921120385712 1.134358849667771 2.4916899468469316
H 3.2092205159697667 0.508438915752705 2.0033511669743533
O 4.774574090193143 4.278600648508043 2.523304678584627
H 4.571019801472574 3.315029340752342 2.630608550772619
H 4.065125202837234 4.448941236145437 1.935282056769502
O 2.76718513201321 2.9128711474825177 4.473232046088751
H 2.8328223415457234 2.221426850970125 3.802370401581708
H 3.6276099011909473 3.3517433050701526 4.3922471320937415
O 1.3773260952448578 1.4439894740321635 4.922645877211781
H 0.5920252461687457 1.2182879619637779 4.422488272362639
H 2.152142792552027 1.135947594566359 4.462787192777574
O 0.12892044287886706 3.362465017101707 1.3308912628928715
H 0.8636768690525605 3.2630288139260952 1.9335053345213145
H 0.4337503307913816 2.9903515798268048 0.5016119785181248
15
5 randomly positioned water molecules in a 5 * 5 * 5 box. No. 130.
O 1.4569164742490521 4.141501686699741 3.8625946432844143
H 2.2168439615922555 4.6065176793927325 4.201896763751334
H 1.746488489588052 3.2159516406133113 3.9312720816922857
O 1.3996667566800702 3.3868240727744774 1.950806870364582
H 1.807466033373432 3.9521762921080272 2.5371574643587738
H 1.965445948029208 2.6983323737683156 1.7776314405841658
O 3.5137926232373324 3.208308157769064 3.7878619302370655
H 3.0941393617333923 3.8171365007670155 3.116600877571229
H 3.264151522218204 3.634887873119656 4.63947914868336
O 4.84969159167463 3.7144788684167187 1.8344597678119312
H 4.4723987825492735 4.504408886565316 2.2116885922097413
H 4.10432914132081 3.1278509106935326 1.8329350344033817
O 3.996599383182767 1.1985438331272547 4.695732748625258
H 4.096003661460122 2.139896052849439 4.837234181736478
H 4.932371506556571 0.8730793180400853 4.754303904152284
15
5 randomly positioned water molecules in a 5 * 5 * 5 box. No. 131.
O 0.327513000118696 1.4433795017193947 2.300014618330362
H 0.05453586478653927 0.7739043617686834 1.6299181704317238
H 0.33791201697213846 2.2263879990588897 1.7701801308259475
O 1.9668487984896743 4.287945761400344 3.294748785859159
H 2.1464233162814654 3.3557356958246976 3.1807144307913235
H 1.3347490699086693 4.494007439472951 2.6204840276560133
O 2.8145616162117895 2.107876099787255 1.229259302945323
H 3.534847579096861 2.3339133717171947 0.6465086496446617
H 3.227772301448306 2.004946637358286 2.072341165603506
O 4.542563835792773 4.190964889557039 1.516378379968773
H 4.488620780020383 4.040869064012126 2.540438845913899
H 4.713746163945462 3.350089855018318 1.1388803801293683
O 1.0377379282859729 0.8493819403536151 3.5817765396877776
H 1.9052124568577897 0.5622942017130471 3.5502324700354855
H 1.1045510330269512 1.759101011670531 3.8639867516188353
15
5 randomly positioned water molecules in a 5 * 5 * 5 box. No. 132.
O 3.514029777830358 0.5995031458949701 2.9634707318087323
H 2.9879231125637578 0.9415524080979083 3.6934534729144497
H 3.0466240875995396 0.9495455213549899 2.226905670761033
O 2.1771128582020163 3.7763033815215836 3.434930620588002
H 2.7595926375758655 3.739665870266236 2.6915030324808673
H 2.7046088766188574 3.916643998667682 4.202901133553269
O 0.8372525344861981 2.801367789765217 2.926378243016256
H 0.08636709100774898 2.855798545118394 3.4825405343225637
H 0.7667031048575343 1.8549042611325892 2.6395871819611036
O 0.7587502390423867 4.130287697337611 0.8754147364731152
H 1.65726856700352 4.313565941145846 1.2008722340799622
H 0.22110243016432762 4.923705155021215 1.0179269436488316
O 0.3552004355394678 0.5281396282633743 0.43511150852752367
H 0.5768451674411987 0.5127841047356215 1.4114119465496688
H 1.140300248046934 0.5673800382248629 0.003781970420304981
15
5 randomly positioned water molecules in a 5 * 5 * 5 box. No. 133.
O 3.672068041898168 1.8219103695224648 2.2770375305482364
H 2.980338669990612 2.3197000963348793 1.9115262389335042
H 4.433630022143227 2.3342361402058494 2.179891818630605
O 2.4880291430456287 0.8239275676759683 2.27459562807736
H 2.071415400965813 0.31959313881181217 1.543395787221944
H 1.9429100585421786 0.6684214677668439 3.0439466597689355
O 4.292799501208511 3.927095833389398 2.7116085285410065
H 4.4585330264570455 4.744151293575679 2.241664021518532
H 4.112066339789004 4.127903027996877 3.608504924415854
O 2.507818621710403 3.896720204364918 3.0840583684841025
H 1.6491703479003799 3.8864523105387847 2.694136637135997
H 2.368162450898547 4.177116884457834 4.011577682730014
O 2.7751444190363888 1.9427071295115095 4.030201787701474
H 2.638405999960723 1.7348476291422688 3.0844815834815633
H 3.3606875542767556 2.6817756906342876 4.015601938299558
15
5 randomly positioned water molecules in a 5 * 5 * 5 box. No. 134.
O 0.518723266692353 4.1012599102158696 2.27653187305789
H 1.064695133909856 4.252568403810906 3.0099800176050855
H 1.0919119873277727 4.259819353597395 1.5036645245781364
O 3.4740335978226367 4.0017126889069905 0.003264862849504113
H 2.527168601924268 4.234615064538924 0.17941908139035856
H 3.6487153814379814 3.469603110557107 0.7500591709973051
O 3.8101315587240108 0.7479629737252802 0.8877768231403171
H 4.130519288014775 1.3434143603885005 0.16927182345092473
H 4.644851922768977 0.20693091996879542 0.9403403470311664
O 3.4193765104258844 2.7601223476979704 2.3642123351440962
H 3.257636444049325 2.3566593877586066 1.5146045687649257
H 2.71984069590558 2.3853536072802393 2.917920250395189
O 1.1243902254183258 1.3851334117053582 2.4676185091379232
H 1.5646272563419852 2.0621175228238835 1.8463463108498788
H 1.8483139979795191 0.8139372032199576 2.70261730321311
15
5 randomly positioned water molecules in a 5 * 5 * 5 box. No. 135.
O 2.8439879953768266 4.684749600211013 0.20741260477417034
H 3.1737984535844506 4.314309901626145 0.9794099629957792
H 1.9633081231644307 4.3403522957914475 0.06384040929326351
O 3.3741092814908247 1.7181222621998504 0.4843118290140397
H 3.248834932336993 0.812528842942892 0.07389066537684208
H 2.5249189525282327 1.9407984736230326 0.8310270385368056
O 0.34977981181198214 4.1791951149078015 0.8331595356977439
H 0.4824370112193011 4.656285170806015 1.6411964439078814
H 0.07454213382665387 4.857293866126102 0.13651640083478933
O 1.1988626198740249 3.933665428482431 4.087086546575919
H 0.47567516835683377 3.5567774029051074 4.613365427727645
H 0.8886655378501307 4.2451611574313395 3.344384400838345
O 4.067474670870002 3.6962889896260718 3.7659379170294893
H 4.0699587120047385 3.141170798326043 4.486940140726977
H 3.9173820498692677 3.070096560783862 3.058135034072347
15
5 randomly positioned water molecules in a 5 * 5 * 5 box. No. 136.
O 2.982292151459318 2.7866120269510057 2.2797830222391573
H 3.1910569777317965 2.418857729551297 3.1945878554534546
H 3.1163722646751175 2.1026687241019544 1.702267004012965
O 2.609846552939845 0.40107970306587915 2.9224841296527817
H 1.7031508955129877 0.2806250142397269 2.639022415304841
H 2.888132556765364 1.1919845494183847 2.4514967215835552
O 0.7033868423949957 3.8640624070400613 3.4021674190215783
H 1.1872843065183842 3.7383798004846773 2.607883490861935
H 1.3406580804019763 3.6740585501488217 4.146601903014201
O 3.326196218168005 4.891114774659145 3.755391106949129
H 3.6393620506074074 4.05242178319212 3.419402249500211
H 3.0077295128107506 4.624215892119086 4.641507707287575
O 0.8378899258531891 1.8627808236462169 2.1291161140037347
H 1.2423545062677037 2.3374866263456626 2.8402291857876696
H 0.22868829955817271 2.49561159930945 1.7637013542434925
15
5 randomly positioned water molecules in a 5 * 5 * 5 box. No. 137.
O 0.07898654656808113 3.071178732065504 1.1882381617813405
H 0.3844097884601164 3.810953991007273 1.7222136809503477
H 0.47365151911436926 3.2984561531567427 0.34885995287705374
O 3.1744734806467583 1.4871265117779502 2.8865309541781508
H 3.151427764766307 2.326641944550557 2.5365163395773163
H 3.313185697690454 1.5767281469947585 3.793964052715908
O 2.645424803473808 4.098816927437838 4.314810946685985
H 2.4318670163608727 3.8685738822841307 3.4177560789200756
H 3.0741764551845443 3.26827657021329 4.530370812633455
O 1.1750415114577906 2.9619727384413075 3.4656762004061603
H 0.8165231835456075 3.210011078585975 4.323713116804584
H 1.6410113328299192 2.1472108016913785 3.752548472352804
O 3.943529379155735 2.7036683972207904 0.4734423838239632
H 3.8453540760575007 3.192326927371712 1.3203528259353599
H 4.865040495039541 2.4264622643680562 0.5119489543762358
15
5 randomly positioned water molecules in a 5 * 5 * 5 box. No. 138.
O 2.972751158276079 2.5832222051219493 2.659636226793938
H 3.1375136202377143 2.1818740034723727 1.819586242977716
H 3.3033622365300195 2.0172565486616927 3.3607269399240245
O 2.5245391319853523 0.2970400025229025 1.350969357981735
H 3.133124724367925 0.6247527993028144 1.998939589690962
H 1.9923060087300426 1.0372129978378726 1.1328940659551054
O 0.25479211267888324 4.326967702689208 3.2623963465696164
H 0.33867522882819656 3.626166082074393 2.6339602328804146
H 0.475478528960259 3.8312859860115593 4.094457380161915
O 4.380360729808251 3.692088200083323 3.696724172368935
H 4.321930769482406 3.1105150259196304 2.910667607468606
H 3.6076488015499844 3.469050583537904 4.146652053024108
O 4.909625303561466 1.5411844131212926 2.8625802601657706
H 4.478359954765621 1.1797585648979567 3.6061016299155835
H 4.642967162490541 1.077072447728469 2.0871524767720597
15
5 randomly positioned water molecules in a 5 * 5 * 5 box. No. 139.
O 0.5883949833444302 1.2248317334691583 1.0400879920418582
H 0.16493493530248943 1.7946912154621515 0.38657387945252153
H 1.1284468236746859 1.7077179862803678 1.5823211027039266
O 1.2565303704778725 3.2598830345550223 2.0586640881676783
H 0.377011225778911 3.6552195919072172 2.0444050691902165
H 1.57333081157109 3.3382178200515846 1.2013577479298803
O 4.574408680073716 1.6012190370044728 3.074616607388594
H 4.302763336687214 0.7187878181237903 2.817100333216812
H 4.01513716818293 1.7310213406563564 3.8211185262038976
O 3.2159945746937324 4.803851458089676 2.178131620225725
H 3.376560042568814 3.9126178415746917 2.0691558995286137
H 2.384375978875168 4.874831924582782 2.6503239515640553
O 2.852605240849688 2.069340757027596 1.2387929266913504
H 3.633940833727939 2.3099073417047227 0.7561319162038673
H 2.810995763378003 2.697139781966963 1.9922495994448106
15
5 randomly positioned water molecules in a 5 * 5 * 5 box. No. 140.
O 3.485753462588045 2.4548000687704348 2.029170228399184
H 2.7665641855184893 1.94191956147305 2.1553350099717385
H 4.089934096838977 2.048688458040771 2.630622886110573
O 0.8079611886803828 1.2420642100002288 1.446847567933713
H 0.3144144631520913 1.0996564435880403 2.175650989960966
H 0.8785286863455974 0.3622062590465166 1.0698566457144403
O 3.2629927063076587 4.407171688653545 4.6460815130719455
H 2.364655483914381 4.233035077472478 4.759637037155386
H 3.4676098588517723 4.170959882727972 3.7679878878153357
O 1.4635475014094745 4.654190409464619 2.977628403958397
H 1.8703992657128896 4.771814684803319 3.751866273402589
H 2.086897140579337 4.221386198584092 2.3534399186089603
O 1.3127451844218052 0.6463877827766329 4.034495508407215
H 1.773879756463634 0.6719803166268237 3.240808257921417
H 0.44806109438814457 0.27512385718079524 3.896176036531763
15
5 randomly positioned water molecules in a 5 * 5 * 5 box. No. 141.
O 4.278254199242797 3.8821035908022954 2.6130502858821996
H 3.6568100207791354 3.6659825532475994 1.890999693560424
H 4.250468099692884 4.8715741717574605 2.6163331404162795
O 2.4649897160379233 3.2826822262046766 0.6742948521468994
H 2.328592589146561 3.015637400752501 1.5997144839969564
H 3.399931888994884 3.4711521547642756 0.6141727760584457
O 4.865112483342317 2.2679345582263695 3.4512789144039973
H 4.916691008465822 1.6909524581694027 2.733865679936555
H 4.839090319304412 1.630459971786124 4.19649947012604
O 1.9168572555733587 0.7688690771420198 2.4400900599916886
H 2.377733849732525 0.7018704348697677 3.3765027763733073
H 2.445430533325328 0.09209826188925829 1.9029730485986431
O 2.5461250261536716 2.691717574413559 4.7249717085634755
H 3.440645187853052 2.987697680636024 4.960880743458259
H 1.9982761714838542 3.451283829571919 4.796605813312932
15
5 randomly positioned water molecules in a 5 * 5 * 5 box. No. 142.
O 1.9899454555255685 3.351375533838161 1.2036772254197126
H 1.339384022051021 3.957830692779095 1.5830502753909357
H 2.69909677734927 3.810212733518376 0.9293836970413687
O 4.034198972496198 0.1915040354489317 1.091002392600486
H 4.345780881071363 0.5235067074027728 0.2942759945315284
H 3.3211854307385824 0.79256644059159 1.3579299832082572
O 3.5712767679074062 4.524942675234599 3.5306436602481472
H 4.26022742479091 3.955720821128178 3.6198213650319286
H 3.3953660390647 4.766213600032491 4.453714067029166
O 0.6949508039968472 2.436686173573378 3.003590673582493
H 1.2044257707404311 3.183768776555481 3.412383770182074
H 0.08607459260351735 2.067997975676179 3.6374139561247745
O 3.804406045865172 2.8698154099220927 1.4694324538403236
H 4.1047985992502065 2.340906895706514 2.2188976746671916
H 3.4360198537584092 2.2351327430746295 0.8715399451043766
15
5 randomly positioned water molecules in a 5 * 5 * 5 box. No. 143.
O 3.5386252930168673 4.3446289287040205 1.4634106095725334
H 4.282352086948391 3.815695100953789 1.762913598966982
H 3.6055703727606216 4.380677527005788 0.5153094539298138
O 3.7864248971376906 2.227392049272043 1.5595174477173472
H 4.189243283280043 2.278468666711446 0.699296223660486
H 2.967125927310306 1.8989725260739685 1.3315603141926315
O 1.9677137239893545 4.142913850151564 0.8729158041042423
H 1.2993653976840585 4.092435490637741 1.569081582090874
H 2.2144352000013616 3.2459981825432584 0.7298438659237387
O 2.01535377928834 1.0481997332090165 2.519128459097254
H 1.6381514112623474 0.18882175606557894 2.280243191987816
H 1.500307345066993 1.374624425347148 3.188897075469152
O 3.90705367556572 4.0725170791357925 3.9211138765626314
H 4.345643855590961 4.628437384714836 3.215796254883185
H 3.320299007510743 4.637541919693999 4.33314885490619
15
5 randomly positioned water molecules in a 5 * 5 * 5 box. No. 144.
O 2.22588924352281 2.060179767469208 1.5183549598551775
H 1.3187294548354633 1.7616059488357139 1.6429735395678116
H 2.5466401698585455 1.3845893428740519 0.8994270678606153
O 2.3519506758505058 3.352853018924521 2.773198394263721
H 1.8799585247409185 3.1052177670710486 2.025427717448644
H 1.847851596376044 2.9932224051529257 3.504189269672244
O 2.9908132957128934 3.350335091261272 0.3528035216596065
H 2.404586862550426 4.124586987516241 0.2731555386172103
H 3.5768423612420897 3.5723852553201962 1.0694245212434108
O 4.612077077669407 2.472797462623997 3.5570338424189103
H 4.578376305121845 2.982720724773919 2.8311771828547854
H 4.6133761608996675 3.0561192934734103 4.292503066244711
O 3.5013250534816347 1.2726520652636797 4.399097460528302
H 2.669023664841146 1.3812429481420083 4.795504549920909
H 4.103062470367886 1.7639943901643047 4.9714024847816995
15
5 randomly positioned water molecules in a 5 * 5 * 5 box. No. 145.
O 0.6661140065234528 1.6202468859120351 2.7223998222569956
H 0.2496111894830605 1.4899133907631958 1.9017122550898176
H 1.6227214051864256 1.480955089837416 2.529980400962324
O 4.770162221116754 3.1390187155645166 0.9589637833339698
H 4.701899359320401 3.844959061478128 1.5827373375420684
H 4.037947511172401 2.617155527977149 1.169217790007247
O 3.8202357487597514 1.34828597073263 3.8291787727582434
H 3.508635052686275 1.3345618370433692 2.8935578707184693
H 3.2749497847889053 0.7956555594898123 4.309101390338079
O 3.944811078716964 4.222280273330753 3.2214113004386276
H 4.337536965068741 4.828319083088873 2.5325858618077457
H 3.950280838272696 4.845798807533475 3.979324157086533
O 1.2855716227730307 1.975538341442657 0.7585109107354993
H 1.456702827410623 2.3046111502007065 1.6395219412487956
H 2.1332061092073134 2.0804602242644137 0.3099979061289897
15
5 randomly positioned water molecules in a 5 * 5 * 5 box. No. 146.
O 3.9125950075154963 2.330835013013192 0.723517864393462
H 4.342894045008754 2.53128022856866 1.531940765015547
H 3.2569445725222828 1.6320236837261373 0.9514348506781932
O 2.5166017763622928 3.62402729527916 2.77628308476395
H 2.8669475306492895 2.9203675912099856 2.248490598275153
H 1.8162403116389831 3.2737760751805247 3.26144612798626
O 4.269324472534067 3.77740204877099 3.461976374542325
H 4.643706101122414 3.0726843348376054 3.9859032076921665
H 4.159940159939654 4.405646010050507 4.131327356139144
O 2.7843117678004186 2.021283186235917 3.769193514147791
H 3.3769423280504802 2.2831301804930435 4.500210964656348
H 3.4407313468592893 1.9310512647398124 3.0331219179213096
O 4.709047549098498 0.23373547678841367 4.452121334631311
H 3.79837105126145 0.03263551523636504 4.303575780072854
H 4.680918145689075 1.0837147875276205 4.7943973188139335
15
5 randomly positioned water molecules in a 5 * 5 * 5 box. No. 147.
O 2.1374792035950834 1.624662255488022 0.9677703804676707
H 2.1031456814072413 1.787024336205211 0.07268002624897107
H 1.5231432977796022 0.8851569262868935 1.064342988138864
O 2.6034090589324395 4.017972842533259 1.1543670073949452
H 2.688390886026829 4.193841255422674 2.0394207813258385
H 1.717109089775977 3.616620999323008 1.1015017863931087
O 3.888901912230941 1.3133147701609276 3.2039666429381364
H 4.085185304200781 0.5315798725546423 2.7724408527518993
H 3.1334679547235016 1.6603744558072324 2.7787815812518977
O 4.133135798353983 3.715793169759996 2.2594622662411856
H 4.753922723809195 3.229031525804423 2.8014547789957147
H 4.642208669535367 4.138830835382864 1.6071755430199348
O 1.2996572012899454 1.8555106648834645 2.2310310690681217
H 1.0104272321387526 2.0707585795604606 3.1270103463275127
H 0.635324631910519 1.2793591770550146 1.9014210089268317
15
5 randomly positioned water molecules in a 5 * 5 * 5 box. No. 148.
O 0.8601190464371378 2.4289480704451387 2.888269959231635
H 0.937871312927074 1.9833163570202865 3.7531570403629564
H 1.118068239668906 1.698301844608515 2.271778421497009
O 3.8549546875623135 2.539652813722968 2.894935840353586
H 4.234975707052981 1.8872409304637012 2.3318303238433162
H 3.737033751316914 2.0501786074740456 3.721677972884023
O 1.581905987717327 3.6093200692765155 4.1351700513028
H 0.6072778661526526 3.490689639025831 3.9155507864256514
H 1.4594599640819763 4.1032819755084615 4.91304821670853
O 2.9414621429686045 1.0420740744018464 0.8435335927966731
H 2.6354833987357407 1.1159809461613588 1.7543217365128834
H 2.6063898385561806 0.11947583328028621 0.6538251765704897
O 4.668443535550945 3.8213228814526072 0.6676403111766649
H 4.122363573963647 4.5915756450433935 0.5956386217010181
H 4.478464637090978 3.2520210483268746 0.024226254901746236
15
5 randomly positioned water molecules in a 5 * 5 * 5 box. No. 149.
O 2.587010548556972 3.7817719313133913 0.6399027605961383
H 2.4321112939008427 3.9143308441934623 1.5262072272583094
H 1.816894274509183 4.183870053375583 0.20945303040676866
O 2.619477888417088 3.6649114892115953 3.8251455984951295
H 2.4738157170474566 4.339598991766272 3.212841374147801
H 3.2164498293556765 3.0512557169866854 3.3434557931883586
O 4.494612489388874 2.2425640290371414 1.3111913567190863
H 4.3580216931319145 3.098622709576561 1.5668706915527517
H 4.412064837829922 2.2613322861154193 0.36631564150743157
O 1.794719733030901 1.2544830485972396 4.1861855681663265
H 1.066231535656577 0.6789724503442185 4.451442344585727
H 2.306146145528744 0.6768244743787036 3.556599179363337
O 2.4385205568591086 0.6202969925206914 1.345542516788597
H 2.8263009634603478 0.3297599412598596 0.5869789074546868
H 1.5247538829125682 0.7177264895649874 1.0350207149070896
15
5 randomly positioned water molecules in a 5 * 5 * 5 box. No. 150.
O 3.7237904678625893 0.729628672655549 2.279962016499313
H 3.7508543728855726 1.0415655169444946 1.3715076080326445
H 4.349713173178102 1.2402527559036898 2.6896496990161136
O 1.7299012202081643 2.5146757675304525 0.33655694044334217
H 1.1962460266968118 3.0799207052085853 0.9126895373386832
H 2.551189868199763 2.857421447813808 0.24935202912795074
O 2.8957456045515007 3.2084746925986463 1.9219896593932095
H 3.271566049510869 2.705564781772517 1.208394137525572
H 3.486169967582865 3.9548515451940274 2.0244534887610897
O 0.7585504502064155 0.6985151211155982 2.230690805346468
H 1.3593755755515513 0.7946272361976532 3.0015008402300087
H 0.10827355902244351 0.18284552938768084 2.6190537651405865
O 1.446967067523306 2.2515962348970833 4.185220515557159
H 1.8710501122106848 3.0375980395730307 4.586531365404506
H 1.5887138537270278 2.4934125906060007 3.243233751866702
15
5 randomly positioned water molecules in a 5 * 5 * 5 box. No. 151.
O 3.788083425216459 4.458039353227468 4.280061364329312
H 3.996285889506449 4.192057534680526 3.390971226500683
H 4.29779500469933 3.8213789823150695 4.83840905295141
O 3.150073417933524 3.044463226346092 1.8540275138652533
H 3.1103979370686834 2.089915074431015 1.8222004165224837
H 3.7809631880613734 3.2125605344628076 1.1728212890859997
O 0.5686397653870068 3.340441642088354 1.8058483614607423
H 0.07706720686080704 2.9345763114723464 2.532190132307452
H 0.25911272550249675 4.256659709552881 1.7878044276863287
O 2.810272635176138 2.5090923334059854 3.81318480531958
H 2.446614480859964 2.080792827123237 3.0808742188714096
H 2.256474239277815 2.203545654079387 4.494739393811105
O 1.791343686862703 2.1245882253057102 0.7287353408310088
H 1.0079285254037913 1.8419353612787457 1.2505590432774856
H 2.030530943825086 1.331482357541656 0.3313085121213156
15
5 randomly positioned water molecules in a 5 * 5 * 5 box. No. 152.
O 1.091069437517707 2.779150228181594 3.0385995806706125
H 1.9776248049692764 2.7461487758137313 2.764476545064758
H 0.6960007137669324 1.9071179630137431 2.875067099177358
O 1.3408472289458078 0.44472485955455776 2.0863750424160834
H 1.8574006353134176 0.5099185251108758 1.288630108267037
H 1.9765691074011331 0.3984606054906152 2.781604941875133
O 3.4619890409937053 2.0556573643257616 2.247900135604434
H 3.03737747211061 1.4507066194836793 2.871499317204683
H 3.2860471741285577 1.6233447968429395 1.3948898950042534
O 2.1962322503333205 3.8938902701234177 4.894086833583121
H 1.5457913355495847 4.1940042176156345 4.256078464478786
H 3.0594333113171013 3.975027398490056 4.483999033368081
O 3.6464613266812944 4.167211998972147 0.7812126432817956
H 4.579527266508797 4.349894808719711 0.7083220128021737
H 3.5825338417214607 3.5074365781425785 1.491972659465687
15
5 randomly positioned water molecules in a 5 * 5 * 5 box. No. 153.
O 3.463878426080198 1.4513311605013017 1.3078221283116875
H 2.4962550241476062 1.2065374845657089 1.2283270667250483
H 3.874293780642402 0.9189104066689203 0.659738737849886
O 2.442318880223315 3.0415434118403613 2.511182401336161
H 3.260507778036005 3.2636557499505856 2.062146091763789
H 2.6711841187613965 2.9379938434106445 3.3967831621057103
O 2.7667746105670825 1.1745059048910622 2.916677553828375
H 3.573901028852001 1.0474002637585347 2.481206387403227
H 2.381133722675264 0.3250669965112841 2.97226270191881
O 1.2641695319386392 1.7073271298012744 4.454407437639193
H 0.4694860191666257 2.1481677949107887 4.49551563182586
H 1.0334973545743051 0.7932869113639224 4.579801306574894
O 4.908471913769242 4.830212478671029 1.5328106630302445
H 4.0722192354331455 4.61225066755961 1.9417251400463966
H 4.776753075301883 4.845874506477206 0.6534339370857737
15
5 randomly positioned water molecules in a 5 * 5 * 5 box. No. 154.
O 3.872844550389108 3.2505628579808663 4.645744866854288
H 3.053423504758749 3.827963281683263 4.501228717649316
H 3.5898077092858625 2.381246614766576 4.870861628826932
O 0.2213399209855471 2.579985550847396 1.1216492358873487
H 0.8840028273103602 2.8048053816599188 0.5011896120067021
H 0.142448085334633 3.3835831292484033 1.5730563589542774
O 4.386332057873823 1.4108428891232638 2.0238034383962193
H 4.134678437629528 1.4807530394129522 2.8685161975248428
H 3.721437011992014 1.7350146831468787 1.4272807369999831
O 0.8015575390387442 3.3657847321637946 3.817025189343018
H 1.1195568724596832 2.671040410363939 4.3814569909653365
H 1.1938318928269953 3.210105350950901 2.897764382171565
O 1.8622514623040554 1.1774745549813055 2.68514344331315
H 1.5800649743643214 1.7010759235783146 1.9067997980983022
H 1.7347595280103307 1.7183052796030318 3.386683475556927
15
5 randomly positioned water molecules in a 5 * 5 * 5 box. No. 155.
O 3.0922348648652664 2.8207650228035015 3.8520791927356477
H 2.3927216443534376 2.860674757942505 3.1835742927401234
H 2.564848865342147 3.009078406558464 4.645600867640978
O 4.3854754221329975 0.1876789655849298 2.8579772286563325
H 4.146369282010754 0.7841912974708474 3.499067035237516
H 3.9997413589010744 0.6052366864354698 2.0931107591230442
O 1.1587561842945493 0.6788155197352169 0.9672606596569377
H 1.7368757860347306 0.055691816726929355 1.4247810494138922
H 1.177753060713559 0.28932677217851244 0.1390051415946848
O 1.6166541163502108 3.6389393154161476 1.6975528928589805
H 0.985653494504114 3.8752621189298275 2.4211778190175806
H 2.0469537996879197 2.8787712525960547 2.0005542236541136
O 0.9278444865070368 2.4412219828706228 2.9500016289723607
H 0.06814328607125342 2.7638245285487213 2.7375826513846278
H 1.1540597954490976 1.8304963243949137 2.2574227713818558
15
5 randomly positioned water molecules in a 5 * 5 * 5 box. No. 156.
O 3.7619180865786284 3.8954036674586643 4.6861099306729255
H 3.8758202233703267 2.968030364868634 4.711410851247279
H 4.5087732831468745 4.267098863423643 4.171463855859239
O 2.1238773698763125 1.140827139727643 1.6207785034041993
H 2.6585217704602937 1.9569825311023594 1.575137621907559
H 2.537475337537824 0.5577525949768043 2.245222935803825
O 3.8433465998121314 1.8453487825279287 3.4000775444845903
H 4.124117763286235 1.763264973563326 4.315947625401609
H 4.567493582823491 2.374889240529998 3.048145245763669
O 0.9066574045461501 3.5779279352227173 2.235098023339269
H 0.9152800179373126 3.953556668961776 1.3878693979788488
H 1.3035965534410816 4.27245201620026 2.883834778291705
O 0.8188378122579631 1.9653846378333195 3.2086813351427255
H 1.3681083730007262 1.8378290039473002 3.996100418034135
H 0.4023828032982611 1.1562438400659703 3.076447389203183
15
5 randomly positioned water molecules in a 5 * 5 * 5 box. No. 157.
O 0.7112933975521585 4.7338263435256795 3.334294279455809
H 1.1701467334189328 4.924944784607186 2.512097494407039
H 0.7809535692812638 3.7818453157791083 3.433715178656066
O 0.9497693914375804 0.5754794755685555 3.295572047969509
H 1.6022387198813242 1.192061350648922 3.6338435527419977
H 0.12472136601018169 1.0424963187939245 3.343204617271516
O 3.538355417725259 4.911269301786595 3.2773615373854574
H 3.742151369862155 4.63074482619645 2.3951556692371585
H 3.1752806511557026 4.141895431971444 3.71178101889267
O 3.207786767207768 1.6510258405858147 2.3868559175055886
H 3.5994182153786958 1.7368664665700229 3.3213278803890613
H 3.6131856072408737 2.3770870004322915 1.9248633568223716
O 1.2007394582001023 0.529488400512757 0.9608116245798531
H 1.4070301338259927 0.4310029909799458 0.03795997687204933
H 0.4235749575793124 0.022265846093537434 1.1237674448901491
15
5 randomly positioned water molecules in a 5 * 5 * 5 box. No. 158.
O 3.6679141567334925 2.3653601656621603 2.3323943519330332
H 3.919174857082928 1.9681714910967214 3.1213842143428994
H 3.8577191257543713 1.6405410467312806 1.7951079353855783
O 3.5672457098823767 3.8357319327987787 3.327910223205598
H 4.2445946254292926 3.144523266540533 3.29143982735233
H 4.032901604748889 4.523282953647919 3.7199218896857085
O 0.36343317252901075 0.4474673102694088 0.8748296057060478
H 1.1983421473878668 0.2705936885809234 1.4733402870671477
H 0.6371665293596558 1.0587514501121085 0.14102791722846986
O 1.792730624394565 1.891450444482488 4.387170316885525
H 1.1885795757676396 1.9087600309427324 3.617846890679825
H 1.7207866606529705 2.8028167669713717 4.6183832766862905
O 1.6566506400323555 3.026756587781873 2.2476834042326232
H 1.8572806908987665 2.3445030811678462 1.6188402217655264
H 1.0902226978214649 3.581652211118697 1.7991180703022942
15
5 randomly positioned water molecules in a 5 * 5 * 5 box. No. 159.
O 1.4903959453830207 2.1857446753396585 1.7842593634572435
H 1.2528964021225593 2.4182390449941087 2.682369016741383
H 1.8265738953096304 3.044260865670744 1.336499812742666
O 3.168815894359302 0.30756017563607907 3.972631307911057
H 4.066910506304394 0.05152128930013394 3.9019046257866483
H 3.1814195109934533 1.0609924427521855 3.4357095378118396
O 0.6376387501410086 0.035210918940262736 3.832014582171856
H 0.3184855799011037 0.13986129287967247 4.739458068232706
H 0.033704477131242916 0.48793614060585067 3.3089377814350254
O 3.934929720408495 2.597941599044799 2.674817107417305
H 3.6800674544652305 1.7680701942453034 2.257381971069526
H 3.6203724335000897 3.3117141469675406 2.123162572986857
O 0.6515577334337797 0.7234008016641957 1.897914758977427
H 0.03999272551982591 0.4455814960591067 1.2588093085693957
H 1.4071174582531478 0.2683928602102333 1.487705728024703
15
5 randomly positioned water molecules in a 5 * 5 * 5 box. No. 160.
O 3.1521651414305762 2.00353404499566 2.8770355531265897
H 2.9119223732597015 1.4211588385427762 2.1611891529121654
H 3.0322579120480664 1.4542071136541759 3.650468208766031
O 1.2688684532085244 0.8341056697716814 1.7381345232498173
H 1.940115147881881 1.1527796570032618 1.1458781213084488
H 1.687859643762847 0.9427168507189498 2.583382595225232
O 3.625001972134317 2.786856412760535 0.7739480846911512
H 3.7489608262062615 3.43975125196402 1.4991771935402702
H 4.094674595195415 3.127576349002237 0.07383534647219081
O 0.038975775938043244 0.8688227556755107 4.240666334251974
H 0.2008606985281875 0.23638625152900306 4.958946144454134
H 0.010686806713805619 0.31539528207315093 3.421554692286205
O 1.928663966227922 3.7050493584082616 3.6901311878342136
H 1.034047122127316 3.5699638608718245 3.978856574847844
H 2.4115321690121956 4.154986797656291 4.452687069860268
15
5 randomly positioned water molecules in a 5 * 5 * 5 box. No. 161.
O 3.852781521668662 1.553745455449243 3.479694266735465
H 3.9577655916047534 1.3796238961740415 4.443980024444282
H 3.421144534304187 0.7499618409426008 3.1740702015036604
O 1.3120345214530638 1.8825783564621679 1.1541892548019828
H 0.8537164658901637 2.2468894438775555 0.38027464150363044
H 1.3509755886577335 2.7143502734114207 1.7022782127240208
O 0.632114730556021 3.855792241895724 3.81092971647845
H 1.1390835143257487 4.646895000414074 4.061811420538322
H 0.7270553125017674 3.274797080602342 4.526261938963345
O 1.1528274540482948 1.213878794741396 3.4790012377371546
H 1.4845272155574643 1.8065679070548097 2.7867668560234318
H 1.6126583204367644 0.34217801077807475 3.3032309585011106
O 0.7029963424027003 0.2791418749528146 1.362671538279427
H 0.14068086930595436 1.0535804700180016 1.16831060685045
H 1.0514324175102137 0.5051425533865833 2.2493893987753735
15
5 randomly positioned water molecules in a 5 * 5 * 5 box. No. 162.
O 2.8258858712888317 1.56336231920523 1.0334645152113142
H 2.4708916601204467 2.468565218101345 1.2643642571489797
H 2.384596026441256 0.8869748600116962 1.5723032610909253
O 4.005805278913315 1.0923736968750297 3.496032246971219
H 3.48215035158647 0.3995331890464955 3.002358650138355
H 3.6220144780536825 1.0121501383499458 4.345114591730011
O 1.1157214413919552 1.4390316049914442 4.0953192298791645
H 0.30830077352253005 1.1946484154258061 3.640342989747501
H 1.7757927747534188 1.130525693655282 3.5455712688014156
O 2.574129925078985 3.870536083893479 4.874725895911633
H 2.4752630751738276 4.84062089339979 4.911012522739397
H 2.1919441459128244 3.641907634101554 3.9850184390923533
O 0.5293248986972304 4.690558489265023 3.409322372368183
H 1.29148457586003 4.405344261875442 2.9098313303031746
H 0.7469285764499102 4.560385002013207 4.344400521687583
15
5 randomly positioned water molecules in a 5 * 5 * 5 box. No. 163.
O 1.0126264581076039 3.0038421180474546 0.21786110723421626
H 0.6052135471794226 3.1536251047734734 1.0371389623003076
H 1.6888640934787091 2.3380135643719773 0.4119992090561791
O 2.096875165719979 3.1143629378241915 2.8897534212098526
H 2.5149242933194995 3.854277359152012 2.507989865727274
H 2.710150221973922 2.635294237454373 3.3824703701663186
O 3.1246301164494983 4.340657648345305 4.195358480532298
H 2.2342815157592772 4.023927208682415 4.209784984663318
H 3.2357374335411597 4.967095651070552 4.893064729927086
O 4.898782746245031 4.206061516079954 3.065177548403733
H 4.243136702062562 4.432529182355138 2.4084327435897914
H 4.386516725501259 3.9227039832144324 3.9074463628824336
O 1.4698991315386785 0.30493551609403646 3.998253512840747
H 0.7922563084767297 0.9522868069302477 3.6785265626519985
H 1.3556615841354058 0.33453479704765743 4.928563331985901
15
5 randomly positioned water molecules in a 5 * 5 * 5 box. No. 164.
O 2.947098744468686 2.813541947431112 4.007316910793133
H 2.074534461900027 2.381880764470811 4.021804549828686
H 3.5797477438201515 2.320588338820731 4.555942607268573
O 1.4966016043681436 0.9771596979886932 1.8915972912715895
H 1.492134167230223 0.5015533350405106 2.686460864663078
H 1.573577470166213 0.3148262005971907 1.1578275821248403
O 3.292773789933761 3.842584772813657 2.211481899918205
H 3.101813441507196 2.861279120133295 2.149843760510392
H 3.627366012437443 3.9901589815119385 3.086609332839985
O 2.563871388319419 4.716547828313902 0.635390732346397
H 3.1818048672436667 4.364224991227914 0.13436875408545723
H 2.3075228329289175 3.9896202391984996 1.1304557360099068
O 0.6151191624589641 2.405558652088471 1.1251330821098338
H 0.12333311429067467 2.0863008904435127 0.4098284443330501
H 0.11287488762483422 2.0296814278202837 1.8563327026307366
15
5 randomly positioned water molecules in a 5 * 5 * 5 box. No. 165.
O 0.21743811892270037 3.390521818104848 2.58203785572761
H 0.43825591426452626 3.0724652877702745 3.5213596177323256
H 0.209071456644039 4.325539230405636 2.724993846033632
O 1.7141962857443942 0.29519239102114236 0.808525359455608
H 2.511530520720866 0.7715693902271592 0.9103059257525344
H 1.1977126636649738 0.7218590950594544 1.461539374705966
O 2.97390206920942 4.009651987220347 1.8959595200096058
H 2.3667843176417547 4.1778997793271815 1.1053761236579942
H 3.8154769429769084 4.12775083123124 1.5935672762729878
O 4.504330136404135 1.1604401449226531 3.7416374674426454
H 4.0061098900490295 1.6601023445982446 4.352498347919221
H 4.56624658953554 1.6689587423332501 2.929173346127506
O 2.869875338700612 2.684548749247834 1.0620521453072063
H 2.206978639124242 2.0489683725218253 0.8271993121445327
H 3.4471528058146608 2.1217951059182023 1.456637972963759
15
5 randomly positioned water molecules in a 5 * 5 * 5 box. No. 166.
O 3.443327270866382 4.361348194769184 2.4275920156331203
H 3.814190973704751 4.22061964385921 1.4990053164188462
H 4.241148450290385 4.490587374487525 2.9947479747877663
O 0.7367666918214599 4.300005974967173 1.0031157477476187
H 0.5325378096896762 3.746973901665365 0.30994752639053846
H 0.5010455780833373 3.731306521276509 1.6843248078516302
O 2.9599556215565763 0.763440413778832 0.23799541366378352
H 2.568947644554261 1.6169853232451095 0.49256065070833693
H 2.298206840863476 0.07021083711897014 0.3616728591772124
O 3.795597478712364 1.473137666723775 1.6724739419768881
H 2.847131111347748 1.398707363540335 1.714937909115588
H 3.9740165896572157 1.9404214695882822 0.843719753057103
O 1.2602847560332169 4.658897713004709 3.3753608386234744
H 1.6401912658220088 4.3539101835563025 4.229757676359457
H 1.8381038406698376 4.243661201596046 2.712796731803042
15
5 randomly positioned water molecules in a 5 * 5 * 5 box. No. 167.
O 4.135845223645066 1.3387813665944854 3.1262937862515594
H 3.4173064395746806 1.8338933711804843 2.770121168270769
H 4.77467902636549 2.056138372714757 3.3278180697888353
O 4.607556703782343 3.229414754878634 1.1303631451563168
H 3.8290337330408715 3.6603220219437396 1.4218143049665732
H 4.306682782254965 2.8300459291476314 0.31938467639070367
O 2.1809182525819986 4.518349541175104 3.7896179359645994
H 2.704972476497784 4.917297495575502 4.580000609289868
H 2.5698191999275593 4.859827161139869 2.935783261750445
O 1.0653583747416395 3.4786084960374772 0.3554769764384258
H 0.9508722189973553 3.1190603249738174 1.2881306450876204
H 1.8813910821654127 3.9445408988868547 0.34603931384341413
O 0.7746379705667378 0.4450000343424926 3.1847915266398106
H 0.45557737155972056 0.36938867417407856 4.068672764359882
H 0.5653095002368561 1.349368511387953 2.9009434718561673
15
5 randomly positioned water molecules in a 5 * 5 * 5 box. No. 168.
O 0.48948109645961857 0.10222890098916082 1.531468350011096
H 0.41429223376268115 0.9714007002454258 1.9585305597436058
H 1.2454669596439776 0.18160448232858317 0.8861735215414425
O 2.955500919566666 2.4554767617305036 0.7132270576022537
H 2.2121682313164808 2.571829709323566 0.05387057282565022
H 3.610918890051461 3.1628404444732463 0.5823852853888254
O 0.8246567444954273 3.925577381994892 3.988087042645414
H 0.7252728846188831 4.427664697723492 4.821626078879236
H 0.2578317578782586 4.3230805544148225 3.3381903426538653
O 4.339854895779953 3.015153430737752 3.331659332837662
H 4.846198543418926 2.325547822186516 2.837728295068982
H 3.8705638966498674 3.4644024674410017 2.6227462452747208
O 0.7753777515177201 0.5579900801310506 4.4045078051703355
H 0.47449323201969856 0.2860445457576689 3.545757707125028
H 0.4400614518872037 1.411875106383262 4.605699463518991
15
5 randomly positioned water molecules in a 5 * 5 * 5 box. No. 169.
O 2.5712086548207185 1.9736552745201315 1.033670829179178
H 2.7615844744322082 1.3672241680019583 1.7033461174868967
H 3.0510206907464155 1.6116664923598156 0.30175836012686585
O 2.8402154518587692 2.9078887208156177 3.6178668501324114
H 3.4756077430296775 2.3439851720374287 4.002780418750035
H 2.0848317408288515 2.811959518661289 4.1513916888225575
O 3.16141449948709 4.705535796483725 3.2805912494460787
H 3.0075289071679165 4.1548007855673035 2.4549549780840936
H 2.623280499922372 4.225130894878476 3.9067233406576056
O 0.9879596459500828 0.29126426080386236 0.8202805586872802
H 0.5260260431244645 0.6833609556997879 0.12804853365610136
H 0.4171362744355136 0.632433789181181 1.5285431433377363
O 1.3100573593079274 4.2237477472208855 0.926105975592339
H 2.014395970626035 4.303136142100138 1.5801047420525665
H 1.6876003978923046 4.2154410557577116 0.05500937553699714
15
5 randomly positioned water molecules in a 5 * 5 * 5 box. No. 170.
O 3.7826316314239006 3.489957225340178 4.475576250115561
H 2.966914135067396 3.8072073658164296 4.98801445183571
H 3.435048837392997 3.3888203181907586 3.6085928529896836
O 2.751696708370066 0.8074853193980946 3.0784090414207963
H 3.576869419506981 1.2767086571040125 3.1678922755842276
H 2.3567214998342494 0.8188822674220972 3.906878628461632
O 1.2576990600721412 0.6806916459065215 1.831216532392016
H 1.7348112519672498 1.1499907678290162 2.465626440345943
H 1.5141839174627445 1.1313073768735964 1.0378629140499696
O 2.3668764732698753 2.7710459723371987 1.6071909818921277
H 2.6691981536868417 1.85066421572907 1.8151625042850652
H 2.08248279231382 2.6905022607237696 0.6673892134210949
O 0.17753169960518733 2.254632472183511 4.3248067167252655
H 0.38903067500021293 1.351449476823627 4.645616022907103
H 0.18951597866579795 2.173110603301964 3.4138010177832294
15
5 randomly positioned water molecules in a 5 * 5 * 5 box. No. 171.
O 1.4061453653080451 3.8783631428280723 2.494571862708481
H 1.4520382698090093 3.470007753213551 3.3768242714057815
H 1.991070309954714 4.641827631358242 2.6024392635811076
O 2.6273878949773817 1.4791670609748353 2.1444470358601575
H 2.204034691322857 1.5672560018282995 1.3486114148831514
H 1.9343817497642501 1.673946345559707 2.744684352073272
O 0.901459508805415 0.5471933757648689 1.5748495998458152
H 0.5988171962123949 0.9633769651828417 2.4147247560400342
H 1.821109351730139 0.3208266100673686 1.6794257405463824
O 2.0086767156138996 0.6626135314318676 4.244575016492011
H 1.722538203444575 1.3159949386108833 4.871421032211716
H 2.6687230685080214 1.0619147836452028 3.6655635851036568
O 3.323371960663812 3.299758027211697 1.8809713730016353
H 3.1920394748287775 3.3047788408875673 2.884010397252635
H 2.761157592515058 3.968087384858305 1.4823861480568972
15
5 randomly positioned water molecules in a 5 * 5 * 5 box. No. 172.
O 2.316824466834947 1.7786297354627818 4.022406714901116
H 1.9698129510052111 2.4376556085556165 3.469166805710969
H 2.9173411183072586 2.25860579480036 4.590015232465005
O 2.126418259384357 0.7938141561272116 1.1661909197373892
H 1.7958353314074058 0.40523592379454887 1.9426541629878327
H 2.592056015539817 1.6293185315947336 1.383204694160756
O 4.049015704122723 2.1827558707858987 0.35935908594173893
H 3.2622303925890437 2.655839044243356 0.1476121242608291
H 4.734564066765307 2.8228407724823645 0.0496171530636062
O 1.0619750576861504 2.634962456622469 1.9827842550485686
H 0.8006157237901652 2.4563717498150783 1.066311922612422
H 0.3953096472368225 3.1534454638043345 2.413362465480813
O 1.6842351948136285 4.346946153858042 2.1465383180774356
H 1.1493486151751515 4.912352692976329 1.5460249991290667
H 2.5453450022901167 4.253612523622383 1.7668425720099383
15
5 randomly positioned water molecules in a 5 * 5 * 5 box. No. 173.
O 3.2344794455658383 1.0520628591425596 2.987042801235145
H 2.851040308433051 1.3061034776297167 3.7775473463752514
H 4.011129682284593 1.5486254422843069 2.89643785713117
O 0.7617848455949222 4.337782607827075 4.283810676179912
H 1.1389960400792964 4.389272919935576 3.3362797484614912
H 1.4194285622582243 4.669917531950085 4.8826110793163675
O 1.2967539031174118 0.6310974778480832 2.9811808479797346
H 1.264557881068674 1.1841848513218876 2.3037453892364184
H 0.861745838332706 1.0886632311842954 3.739964623133508
O 2.6568006493690537 1.8749647976280925 0.4264167063264629
H 3.514299470138031 1.623489101369659 0.6812679710698082
H 2.266146575202238 2.3076365141946584 1.1794250333356715
O 0.8438596643371743 3.516838766560464 1.345870646646468
H 1.0587633913285017 2.955593342800792 0.6344890719458169
H 0.6537410157020158 2.938586844355402 2.1273658664470476
15
5 randomly positioned water molecules in a 5 * 5 * 5 box. No. 174.
O 4.822969639222825 1.4785484760164003 3.2477163986494393
H 4.183095926756016 0.8403026406412037 3.4630682706869584
H 4.831249170767603 1.9904954630721665 4.035031452474736
O 2.439754873371629 3.008157663854279 1.1608082911930766
H 2.883319567006061 3.1581895636554798 0.3293072806205064
H 2.2178190631791224 3.9373345728845384 1.4367656622809133
O 1.754443788701265 0.11017322773675342 2.908016173778307
H 1.8347610940158108 0.667773904750944 3.741986544520274
H 0.990329720009925 0.5259074113657392 2.410452857946252
O 3.944594924882767 1.1275009894080446 0.630807578278193
H 4.675001722591775 1.6443284199604928 0.8519600846832325
H 3.1673553582580602 1.6322778093610828 0.9428826455105642
O 0.6471031522271437 4.636101266170834 2.308090745033625
H 0.7888253275889252 4.715138780603249 3.2607556641665902
H 1.4634101637782857 4.9072526777430365 1.7871521941518285
15
5 randomly positioned water molecules in a 5 * 5 * 5 box. No. 175.
O 0.7694096875301026 3.221517693610321 2.0826066548924276
H 1.148636508200801 2.341599734687116 1.9643164815495684
H 0.3724592138407713 3.388857476014348 1.257662977710548
O 3.1100420139488643 2.9143073922099108 3.2086520409162116
H 2.8754650612473953 2.614193301310557 2.3785651424404506
H 2.409273253684323 2.626686725547688 3.7514670783355797
O 1.4836734711304034 0.4554328790812878 1.7066941740430341
H 0.8421307423664872 0.5236929183504084 1.0501556570197403
H 1.0855449826801062 0.007330556896252838 2.4534451845594747
O 2.376184439362466 4.30983517101307 3.1074982598923913
H 2.7917457798477012 4.449381649821329 2.2333472388499747
H 2.945673595062186 4.577177387212324 3.7896574854283207
O 3.8592448009728213 1.4679557659696874 2.180763018313263
H 4.097694186853869 0.6288761137005502 2.48435149578626
H 4.413498824478943 1.5049812987300295 1.406684068864883
15
5 randomly positioned water molecules in a 5 * 5 * 5 box. No. 176.
O 0.9279463041219299 3.0245372540409243 3.0419550179404546
H 1.783365845960283 3.3427383157412836 3.1135088284344
H 0.5831779834596929 3.5221494452173294 2.303763928024782
O 1.5107709809579957 1.4084224151363038 3.0393380767798437
H 1.9923336132620233 0.9795933469322943 2.3195575239807464
H 1.8343877758134026 1.0081578070641846 3.808661296084788
O 0.9969450951023545 2.64236586899302 0.6268748798621326
H 0.6324400034268498 1.7978791280081774 0.3406322360840335
H 1.6537838007452748 2.444485249779567 1.1905748129801879
O 4.411971342247442 1.327473315279648 2.4266986107127893
H 4.588383797290981 0.7372915032940356 1.6805257014528028
H 4.66935147304455 0.7730464991285629 3.1831695337023347
O 2.428248646438746 4.104034734451868 1.0211790349860967
H 2.484631055377591 4.192077665154817 0.0762812816130436
H 3.31727958069344 4.015520075881632 1.307091374418773
15
5 randomly positioned water molecules in a 5 * 5 * 5 box. No. 177.
O 3.519934013775521 1.1214281350179334 1.2258678515762127
H 4.066951841590788 0.5544812470064182 1.8132537411525713
H 3.0172912668916454 0.4957039450384614 0.6990077288338605
O 1.4938178677732372 0.2840772994568802 2.9125728600879603
H 0.5825998044398509 0.28455891137385425 2.546109538003203
H 1.3316697324083346 0.2112726169154451 3.852741304027501
O 2.751915694572575 3.563725174538441 0.9336347021647651
H 2.4867976219522316 2.679766314001731 0.7530236776127632
H 3.4054708060644168 3.740793205517992 0.25031682235458486
O 3.261241684632792 4.079167754725551 2.745412411265738
H 2.529632050350605 3.486324026155367 2.898925081775723
H 3.2424238391936124 4.656295957014138 3.5046245196884342
O 1.1348003678828822 2.3534815007011445 1.5214924325801993
H 0.3284912002222581 2.814023759384371 1.7978740576663395
H 1.8080635062681538 2.932399812524931 1.9272906398875722
15
5 randomly positioned water molecules in a 5 * 5 * 5 box. No. 178.
O 2.6344335153532517 4.065954380270932 2.93621898023408
H 3.1143736238824458 3.4582292703431206 2.320770891996488
H 3.352862753084406 4.615528844395163 3.3025140921335137
O 3.6155313418946964 1.4537418300831346 1.173476569674825
H 3.6523451532851494 1.0415078959522286 0.3693975136599257
H 3.0778081542231344 2.243297256737918 1.0772235880507324
O 2.8059893479054554 0.8849702399404513 2.6662612577674247
H 2.251688642833086 1.0668387628678697 1.856793127851664
H 2.0743721952548513 1.0420559597167782 3.3332344858963565
O 3.3005257090697633 2.4635502503187405 4.3677350011823695
H 2.531672585505718 2.293948570572332 3.809843993160965
H 3.8857769833588707 2.9653828346196494 3.760335625629023
O 1.0554220870116011 3.8915795027350693 1.5876096186196353
H 0.32525759406016286 4.069183564684659 2.2746135849833102
H 0.5873705125718396 4.042166277569288 0.8476545778572827
15
5 randomly positioned water molecules in a 5 * 5 * 5 box. No. 179.
O 3.7802233530461677 0.29237979772052003 3.8014164943508426
H 4.633680262417877 0.44642760467156384 4.20689463121264
H 3.3502436068826054 1.1168578102673181 3.669534809574154
O 2.6080617188022845 3.018195426104091 2.943578136737053
H 2.0539096656772644 2.9473716648576502 3.704810327969086
H 1.9739279496968 2.9304280863193455 2.3131418005329722
O 2.1852043254501745 4.986871225353189 4.560512558135043
H 2.709084282519498 4.9342153546246825 3.7198165458565917
H 1.967673784125858 4.177294767712184 4.751812091357413
O 0.7379600722766883 0.5982994215270238 2.289195599201684
H 0.8470673593167224 0.5022056492133853 1.3176694377156442
H 1.431393835932203 0.11708991456692036 2.7172079862511
O 0.48690181536494737 2.0925051327734807 1.8640779354198944
H 0.382054867955574 2.3490506548285666 1.014540229862243
H 0.35516222269291453 2.902424486912587 2.3590961625388425
15
5 randomly positioned water molecules in a 5 * 5 * 5 box. No. 180.
O 3.678357016462672 4.660580968243793 1.4644999192159864
H 3.637086565033278 3.8308426956727617 0.9417998790022184
H 3.714550660972468 4.392452994954861 2.3492009169680172
O 3.2020527325357353 1.1700348276600014 4.39022472482106
H 3.0345825476599515 2.0328890767659837 4.725672965188526
H 4.19402624611932 1.1732771239415736 4.363804532134374
O 3.3737369515952045 0.9461421669553893 1.9929746993739332
H 3.08278389497661 0.9301758696915592 2.837812389078201
H 2.8093249798091584 0.3871599739294791 1.5300548099466407
O 2.5418372862996548 4.912407698687633 3.9494735895858737
H 3.4827475382158157 4.787474960208543 3.6924676255749094
H 2.0450983471845086 4.120739783591938 3.6568524780371523
O 1.0326474056088668 3.3555774577953104 2.2157573980993233
H 0.3862153396848691 3.551078530703135 2.87733461950478
H 1.7785738916477065 3.974921425066189 2.3653362023746674
15
5 randomly positioned water molecules in a 5 * 5 * 5 box. No. 181.
O 2.8134837390026397 2.8654771439450806 3.869806302323118
H 2.4179811595769536 2.5103868818273716 3.0056256647934694
H 2.0702354142247734 3.183706453094286 4.239883294557596
O 0.7352073742857557 2.759656169826894 3.507215005041383
H 0.08723349385226187 2.3501240921337336 2.915562084261385
H 0.32723076002551943 2.792291116100151 4.339512290402672
O 2.0073049921171187 1.4692302727518873 1.3024128784005233
H 2.5919764626668877 2.160340085524691 0.9322730475328846
H 2.5975392865425135 0.7267077409263774 1.3731771089963736
O 3.4005793498249934 1.0532065713593697 3.3752206923062595
H 2.6240735854576744 0.5959514519843172 3.651505786697903
H 3.754912328887957 0.524542832657872 2.6359862472590843
O 1.8176171706361104 4.528567736974944 2.3206398543303433
H 1.702179507891153 3.668423386766073 1.9136198622702634
H 2.6495908104460213 4.900923627730132 1.816725964228012
15
5 randomly positioned water molecules in a 5 * 5 * 5 box. No. 182.
O 0.2211167956075044 0.4691623003665346 1.61365895619304
H 0.9698250702441845 0.4151119713243017 1.0848604961498798
H 0.5453679818350321 0.361133894007272 2.4930796418264594
O 2.4530287796193626 1.9330084956771554 3.3500073481378156
H 2.816801687113296 1.2234441361343098 2.8358914223367973
H 2.189047107731331 2.636036919509582 2.7196317593607153
O 4.414213051740225 3.1355977426479114 2.242892009871455
H 4.704360459395721 3.9325155914199543 2.660733121616279
H 4.479018449579345 2.454680770990743 2.8946586649376713
O 1.9454502993708578 4.905451058750126 2.678659236949044
H 2.2820819735120708 4.6427342796794235 3.5793172446518615
H 2.7299503983018996 4.936660676801514 2.0740724026017086
O 1.4894164797301945 3.2158907122448355 1.2042574849575494
H 2.1370560129657226 2.519009406636497 1.2177218267678191
H 0.9102600600601058 3.0015599680527103 1.9214933045088125
15
5 randomly positioned water molecules in a 5 * 5 * 5 box. No. 183.
O 2.3940218765536576 1.3573108190745216 2.626875713862945
H 1.9473125065278296 1.730255498121124 3.4803008070071026
H 1.788131892729583 0.7030712782783404 2.3614756962959023
O 4.253493956327741 1.3816141434661355 2.5454412705635665
H 4.994278369247313 1.1897025215051449 1.9881104244552004
H 3.6420543975841535 0.6022774769592848 2.4112476954701476
O 1.2157818688024147 3.9036804868065285 1.5573323611909635
H 0.6287086793109045 3.214862477804837 1.5213730046927711
H 1.1870272336482768 4.342959553893875 0.6963883506189299
O 4.0227935713413645 2.083534868702927 0.7148861961475889
H 3.407076124000582 1.984022653221616 1.5418256452396162
H 3.358400121296906 1.9786337446139926 0.03654204316120413
O 3.7070188480868365 4.8590816980907725 1.2556646822020046
H 3.4219145720557376 4.252302624418239 0.6248740348696143
H 3.2135060703953036 4.68624267420401 2.0385978120510586
15
5 randomly positioned water molecules in a 5 * 5 * 5 box. No. 184.
O 3.368598873345684 1.104798113934518 1.456989710933696
H 2.745117525249911 0.4501822894506289 1.7725418751526278
H 3.976946448418423 1.1797047821327393 2.2390581389706017
O 1.8005725943316364 2.8842867753050534 0.39676237577925655
H 2.2484586098788495 2.0632628277116627 0.6478998935833133
H 2.414171240379391 3.6122891996867508 0.659420347125716
O 4.755309392515584 3.725037332664083 0.7989359965416037
H 4.514506716867825 3.448131501383827 1.6402425684494193
H 4.950948774870074 2.9143313166828895 0.30902715272297676
O 2.34099392789782 1.899786570574657 3.008505610738101
H 1.598310550919872 1.7688030927134533 3.624331097559177
H 1.8931248738175044 2.0880525502633622 2.1594305111385936
O 3.5535272001302065 2.6533952411097177 4.5536060505926805
H 3.1007572465048994 3.46133221924564 4.698997419663462
H 4.021902521528593 2.7672013963394284 3.744377512756682
15
5 randomly positioned water molecules in a 5 * 5 * 5 box. No. 185.
O 1.2784124686825367 3.7391492451137545 3.037634878622838
H 1.694270787901369 4.164952016516169 3.732934079740991
H 1.9078596406161277 3.0161730440354395 2.857547146359792
O 3.158957892224659 2.36590419201774 1.1473373177605672
H 2.3257243391689015 1.798641472900584 1.380279511823337
H 2.931904426605438 3.2236564482759036 1.5243174233715728
O 2.8803188127816814 0.8650235055738942 3.547227575029436
H 2.0340844649094016 1.18275209571481 3.6937053078070905
H 3.2144241739727124 1.3371407777773898 2.77191391511911
O 4.3532877980629445 4.965881764422853 4.177241480570877
H 3.9214805344049735 4.230472975007502 4.655980035769717
H 4.256703823224503 4.678747147628142 3.2679604126236126
O 4.373072952592628 1.7793170950846053 4.190065514048482
H 4.425703414557443 2.298927977270901 4.984883857706205
H 4.52650688191488 2.3473005422787563 3.4765517864946998
15
5 randomly positioned water molecules in a 5 * 5 * 5 box. No. 186.
O 4.928059405193216 3.574753624426621 2.423497967937673
H 4.577273772388286 4.048173335646441 3.1976447121722082
H 4.593387039802368 4.004740036426184 1.6980180925226565
O 2.6265471856311047 4.557756852100522 3.220192130913519
H 2.889364425781608 4.2270639065073246 4.007823750750356
H 3.477764376356066 4.878233621353184 2.88346059886931
O 3.3451922313011426 1.1952885308025762 0.8284126516864482
H 3.6247519599911002 2.1594662376284495 0.8382538043066179
H 2.895836027810997 1.2193108278534122 0.01859216674291575
O 1.2752191083816307 2.913529599422438 4.186142842605959
H 0.8189913803089498 2.4372929881474783 3.5317999250521046
H 1.4794133048207674 3.7865249293248797 3.7994842669081477
O 3.3018533542804613 1.568066614798005 3.18060066756133
H 2.836404548567571 1.6032182354722306 4.03741856929628
H 2.575935414245064 1.8221468592330612 2.5906381720769884
15
5 randomly positioned water molecules in a 5 * 5 * 5 box. No. 187.
O 2.082470108138994 3.0035436727911193 0.7243125625855507
H 1.3711162026343628 3.3414392150092596 1.3101600180003015
H 2.2049970508813654 2.0689817360216445 1.019401268432318
O 3.528326946502049 2.965886774977397 3.528628444165036
H 4.110441693000133 2.716539111715617 4.311996346895276
H 4.021550069263659 2.7357067027100856 2.738881950432081
O 0.5408659959752943 1.099960788709684 1.4605095115280275
H 0.7174643163731839 2.1224429470493216 1.396521989710263
H 0.7918349382554377 0.8345887835823744 2.27853277954819
O 3.5916804623708987 4.223346862910839 1.0915477711279231
H 2.643632138870889 4.146961404980224 0.8342242404596214
H 3.9325435106508873 3.28556176567739 0.9031582500973951
O 3.7659298745289376 0.20447697144807986 4.030967739594616
H 3.1999124353232533 0.2249270257207797 3.1996721121024296
H 3.1364531261714648 0.3106638579434744 4.786327248561165
15
5 randomly positioned water molecules in a 5 * 5 * 5 box. No. 188.
O 3.112917771851456 1.1439772958402061 3.7090348829683926
H 2.780162843001192 0.7821990374509089 4.498164165850318
H 2.531487351572218 0.7643496262302002 3.069602781398154
O 1.2067773916939712 2.4181851781176436 3.5085180462072634
H 1.1138241659288166 2.2298213599266274 4.453442159020013
H 0.6280702064706563 1.7200369281805674 3.078357032376278
O 2.0055209474250106 0.6503968681060457 1.3105902606587971
H 1.234460384281622 0.7890659561702742 0.7332367164365756
H 1.8058524278855674 0.9390904200476491 2.1159530041780807
O 4.035144186864103 1.7588723085288793 0.7438168416981578
H 4.800522442397051 2.2902044979323337 0.9256971488207699
H 3.3488223356666893 2.2242131318483214 1.2528716157992754
O 1.6551374192789758 3.784550626233967 2.8037058497209335
H 2.518155718057759 4.018373628075037 3.248399786135437
H 1.9159539908170937 3.5261820830120083 1.8807957756885512
15
5 randomly positioned water molecules in a 5 * 5 * 5 box. No. 189.
O 3.3472098748954204 1.2786260065921802 2.474553412419989
H 3.9096831250455946 1.6475578202857812 3.077626159837793
H 2.6651156975357155 1.9490927478731834 2.4096824553709815
O 0.9023572192245483 3.935858037692001 3.813761776105491
H 0.18813415973608116 4.289761077558893 4.46796459688692
H 0.6608662011389206 4.355334310149611 2.9290484770874787
O 1.7280023311004062 3.028520115592339 0.6720731869814756
H 2.2770161208919095 3.736327289443766 0.17726025175974702
H 2.351883439861855 2.2426659530575757 0.7205576006437199
O 4.595063291652649 3.8864998389541676 2.425632060338907
H 4.171781491184114 3.2149547920853516 2.9439611609179983
H 3.8289982078390556 4.456038157156066 2.127413329255743
O 4.714264616273503 1.0404232776475157 0.2594505238666345
H 4.89375230762634 1.6512882579811121 0.9446204126364193
H 3.931396196644367 0.5472843761827961 0.5017249275694131
15
5 randomly positioned water molecules in a 5 * 5 * 5 box. No. 190.
O 1.4042663831581992 2.3161216586493345 1.1894706434634184
H 1.8347598168438441 2.09004700513906 0.4198614328582404
H 0.7990587678157095 1.6486064512644243 1.2871737669270988
O 1.3442030408450263 1.1961924862783273 3.54263143747262
H 1.0984943140196595 1.64483435438794 4.351460412365584
H 2.303360863267783 1.2397493725934328 3.5799318652127377
O 2.7373160733768707 3.893829377967723 4.058981771444838
H 2.2883073911974114 3.463768052955039 3.3718559694881263
H 2.511498574544904 3.461477600960069 4.839107454370081
O 4.613422118153393 4.418265698407725 2.1266286026668038
H 4.127753449334831 4.696907954682487 2.8588259587788563
H 4.162744396169096 4.854989438081952 1.4234691339924823
O 4.043275219078193 2.465552036342908 2.602598795600178
H 4.126356920694646 1.9494072599738623 1.7446255236245563
H 4.64365469676802 1.9578177292992995 3.150299498629663
15
5 randomly positioned water molecules in a 5 * 5 * 5 box. No. 191.
O 1.735907436699915 3.172681400964224 2.883276636918976
H 2.202344554923678 3.824740911153263 3.391962447757107
H 2.394707629902366 2.522077093880749 2.612300333688795
O 0.5808793483631935 1.450907448262571 3.3026008349292777
H 0.38947817585026384 0.5510975430680034 3.7352962224452613
H 0.4936358876037201 1.3009433428739485 2.402928382808427
O 4.083888642334204 3.3808937771183873 1.0620574121271287
H 3.536779762880192 3.5721340077572346 0.3102626793368721
H 3.955583278577578 4.132256868753133 1.73137774526402
O 3.9511465641883357 1.855080466969532 3.584918099009289
H 4.5843051764014895 1.427335040134924 2.9180471182745302
H 3.077114926369878 1.7588976986147489 3.257362184312094
O 0.4527741701797722 3.7960018702784737 1.2757538075105508
H 0.2799345248090823 4.399570423815688 0.5479971785470171
H 0.11417611194595301 4.290697223676186 2.0314018351418306
15
5 randomly positioned water molecules in a 5 * 5 * 5 box. No. 192.
O 2.4402230909085736 3.995908692111263 3.6229744997446045
H 2.3361932920780855 4.659687476300334 3.0077747871756664
H 2.91405634572897 3.3355005887418696 3.1896571667793174
O 0.8581294572400383 0.8626211313401283 4.078237707583543
H 0.36129449895730975 0.5119279862557479 3.3445296896137933
H 0.41397718075201534 0.49749346513016535 4.847636239297983
O 3.8147858249858024 1.8903148186689296 2.6186417610201835
H 3.245501643685876 1.7266102279541016 3.407772631179723
H 3.254690114638615 1.7324231688260794 1.94170966720668
O 3.2669291116692865 4.9934782253787775 1.4662385356195085
H 3.689278182827376 4.769384548727881 0.6495306400727476
H 2.5852884801462763 4.345820200497763 1.5553192127692053
O 1.2633957188618243 0.6270959756684863 0.6610190772404723
H 0.853366636705732 0.5217093739051301 1.4923005806097422
H 2.0819086434949434 0.283233768496278 0.8925580457073303
15
5 randomly positioned water molecules in a 5 * 5 * 5 box. No. 193.
O 1.7741598737359427 2.7985502787445866 1.1752292320372133
H 2.4188725634054253 2.613046844160749 0.47348198889650495
H 0.9059551427743687 2.6287950142779084 0.7403806460219455
O 2.4830469099448087 1.9300725511125238 2.5482566021434403
H 3.1952699176658266 2.1388766998489377 3.0572597964300052
H 2.7762398696581148 1.6162364277667436 1.6845134927610355
O 1.5866596285437007 3.469985605673595 4.976924026943228
H 2.057424250603747 2.755237152674472 4.515943064431964
H 0.7675557979143424 3.562798132690837 4.537972773157164
O 0.6710931443900248 2.064745668258814 2.5137135700197764
H 0.46407348452565855 2.015449564122782 3.4157903737639614
H 0.02986780436468095 2.714357286896531 2.1504409968507225
O 4.352362353714681 4.3842217534312224 3.9815786313723334
H 4.323531021928938 4.624709587250247 3.0997012723515804
H 4.998743164346696 4.923609586435783 4.383031084908022
15
5 randomly positioned water molecules in a 5 * 5 * 5 box. No. 194.
O 4.138635977789521 0.9572880368030662 2.4631147504754547
H 4.282170307808585 0.5656288334985615 3.2869607876458544
H 4.144836720903421 0.2948511626511564 1.7637388356665176
O 4.523688741736158 1.844127366813571 1.0919540122607652
H 4.544124295624103 1.3712798184789117 0.2921478149755984
H 3.738067956237421 2.364080962939751 0.9101986859162288
O 2.587967641450825 2.7896382708018423 3.472767643302304
H 1.9588473697428526 2.78673646590195 4.2102012235157815
H 1.9824111043174315 2.738304106335973 2.654754918868
O 1.2207004518017879 0.003607704825420721 4.344216087433111
H 2.119796156683993 0.17394162566412835 4.269107124024913
H 0.7219135997782713 0.7738473843865206 4.053360597620961
O 1.929479767049655 2.6291335683776924 1.1366200099788921
H 1.2234659800750174 2.3638297090552864 1.7323060678472155
H 1.6634510648607645 2.3172220432211414 0.23755800399761995
15
5 randomly positioned water molecules in a 5 * 5 * 5 box. No. 195.
O 4.5210339808411115 3.3008580125108593 2.039465569214272
H 4.5855491364074155 3.4682050555360604 2.9916049398636297
H 3.6075157543773937 3.517653679988439 1.889243912371752
O 2.5110502524504144 3.5936458005765015 3.636667776412226
H 1.7250909914716779 3.550372847015911 3.1359301879182633
H 2.15150138909958 3.56903448973455 4.55912612325572
O 1.4087107832190582 2.6738923548956617 0.9746475933846555
H 1.7719527733320888 3.320385129063887 0.3527168322443818
H 0.495228550357252 2.4807231788686663 0.6671358835724117
O 3.852699602472325 2.000556368904058 4.108907182836474
H 4.54827736496837 1.9460468529081392 4.858980745772063
H 4.160869469480607 1.6691113287268298 3.3101699692969664
O 4.202590081284091 1.420456881988386 0.9924850184544293
H 3.4970425416952544 0.9015394236096039 1.3172563761920069
H 3.785474102479115 1.9555906592120116 0.3882489688622318
15
5 randomly positioned water molecules in a 5 * 5 * 5 box. No. 196.
O 1.4546248857326587 3.781295846898933 1.8393518788771368
H 0.8138378154435093 3.96381900326229 2.420460753224026
H 1.2747500990658016 4.332398116863077 1.1143984176686184
O 4.96418036243396 3.5363637436121764 2.178603383889357
H 4.246383675131886 4.095415137879032 1.7861068735733197
H 4.669323038368362 2.6518677519748626 2.234945466238207
O 2.76721871271047 2.8559461721654045 3.866862001671201
H 2.44620968279781 3.754603135212161 3.5970947680181498
H 2.1320469817434664 2.607616737666592 4.558329737788393
O 1.537414353535143 1.2864739484103542 0.6996076968847403
H 0.74063093454406 1.2037879094024784 1.2783802051261777
H 2.2329399093230706 0.8452404958067834 1.2121434773066833
O 4.230353603735376 0.6840985466701849 2.6679598991496074
H 3.9189521320826977 0.8041376595204698 1.79115924963124
H 3.456328968242834 1.046150785858892 3.1980091603794563
15
5 randomly positioned water molecules in a 5 * 5 * 5 box. No. 197.
O 2.2859883925021816 2.6791092920161486 1.159171818976235
H 2.2415114073202536 2.671319266990282 2.0580687371402075
H 1.4309071957547623 2.701581408752819 0.8646126439957462
O 3.7985307060337483 1.5308273796214378 0.833463473198266
H 3.237004030909442 0.7712499311042156 0.674795354669196
H 3.8406006547805345 1.5233337948083268 1.8057696134465564
O 1.615960978382334 0.886288132257943 1.262671468921771
H 2.1806051667144426 1.3224527309860385 1.9951593481854333
H 0.7967570109562038 0.8660707092669351 1.630292959400315
O 0.9694676012777748 4.313058058968908 1.9230007348245903
H 1.7846830464033157 4.715210959991499 2.175185797027694
H 0.8407559987534843 4.352665879030817 1.0035820898375252
O 4.954256722281418 3.5054953609074033 3.359677711222205
H 4.405465591304897 3.569619257418399 2.5487862587919903
H 4.303850601371506 3.7455090748019377 3.99972728380623
15
5 randomly positioned water molecules in a 5 * 5 * 5 box. No. 198.
O 3.998538032730899 0.9137929189703337 3.485253509325502
H 3.703754869453031 0.43043613826590965 2.732643529412381
H 4.094970581646232 0.2847124558807538 4.2197237099958
O 1.3582477137844606 2.5175564894441353 0.7428861736530273
H 0.8480508978132812 2.1171449275655663 0.13452052587856222
H 1.4748309903191823 1.8400790917648018 1.392180137224846
O 1.6449613349941012 3.786242163733892 2.0262300395857475
H 0.9558247977754128 3.7846192578493283 2.6914209364631527
H 2.054298543319975 4.645831973372635 2.0388845135088838
O 0.5258596248091418 4.292158048817012 1.0938943238744252
H 0.22073416803027002 4.869039362733786 1.7580372773409243
H 0.8637670406496453 4.89612837820792 0.3577703864398484
O 1.3034207575296302 2.4455247950655816 4.681581357501922
H 1.5445060700060467 3.38692965744961 4.893678055972595
H 0.574036581626176 2.548383513497832 4.102885369281945
15
5 randomly positioned water molecules in a 5 * 5 * 5 box. No. 199.
O 3.5469082270080037 2.6725343030090736 2.0381979573961284
H 3.3278776962889074 3.5517828132409024 2.3281238575813927
H 3.1614037129243204 2.5213635453623677 1.2048929052656556
O 1.0183022907522004 2.2699391059117344 0.03417912119977051
H 0.3433770780151031 2.8396105998526444 0.4886189359690877
H 1.6410638687475534 1.9897203778757748 0.7977700873569159
O 1.3105241835580583 1.1490122348701397 3.1890898491515585
H 1.7840327202985833 1.5546415628520176 2.4731603183865656
H 1.6079688003491805 1.5447654750620063 4.057007765660496
O 1.4553345700621378 4.155340857868512 3.0501773707969
H 2.4347127044780486 4.0411532839393285 3.2011816974934577
H 1.0290235336968152 3.909042138331428 3.885438705987927
O 3.075350032015936 2.312223068736894 4.187532390830791
H 2.7125917639239634 1.8391300972088804 3.426773180407239
H 3.77287863476023 2.875017556426863 3.818798083199617
15
5 randomly positioned water molecules in a 5 * 5 * 5 box. No. 200.
O 4.131709155917316 1.1073768019459478 0.766123405158905
H 3.9382999704946533 0.4996295181682582 1.5364507048912768
H 3.9371638718629702 0.5229146436544377 0.05165327341227344
O 2.5816485044267337 3.072597599746649 1.5298467874215538
H 2.931417141820967 2.268372720823092 1.9673576429414679
H 2.0995814032562237 2.7506104408745475 0.8286404352779497
O 3.3082786686103027 2.839567176298059 4.977620623496257
H 2.884404884109613 3.6281406773951934 4.703332874921044
H 3.6043050036746935 2.4629212752817606 4.133613433330852
O 0.2641101547267072 4.309797426398876 4.01751393052265
H 1.1508448272981835 4.3352132318640955 3.7929193346701244
H 0.0818674830494498 3.3659211274099445 4.120304427617211
O 0.9940028239644888 1.9445896688596926 4.420507511572672
H 1.14898786205982 1.1470225522221182 4.830887436379433
H 1.8170686872994908 2.2356220977308547 4.034517272243863
15
5 randomly positioned water molecules in a 5 * 5 * 5 box. No. 201.
O 0.9944464680097836 1.0145776831854318 4.3023754841857595
H 1.765810501767799 0.6089838998465191 4.080350850486296
H 0.37205626696810634 0.5423107499023652 3.769689518490923
O 2.7944316471249673 4.499811214764442 0.6661127892757052
H 3.6123521575038153 4.220611183663081 0.21775959543456408
H 2.8572719637555393 3.930057286581856 1.4438125110038218
O 1.5764716059529293 1.4382658189896214 2.1951444240249174
H 1.2894314133781393 2.2856681160171037 2.3709979491210342
H 1.644828182310935 1.3445271106389796 1.2352688401057081
O 3.9379648296571883 3.9663644244338734 3.392535162220285
H 4.764785091280645 3.5972819025313143 3.433932333743487
H 3.83772730166301 4.537639619797982 4.124051648365676
O 4.287769720050576 0.7689804452104526 0.7141428201870886
H 3.488825696462836 1.2751321404273308 1.0968317094793663
H 4.954658901647827 1.423659911935531 0.315699824628728
15
5 randomly positioned water molecules in a 5 * 5 * 5 box. No. 202.
O 3.6069603941319395 0.6249246449494528 1.4970196750632492
H 4.384610695676454 0.25743263956790474 1.9370543031296759
H 3.881410858056081 0.6145715873712372 0.5400775297041933
O 4.897678545749446 3.7882672640136636 4.719082553497421
H 4.574608602739344 4.017880054000065 3.8454370551754726
H 4.779191740242343 2.8358414527293965 4.990844814136482
O 3.047156055572065 2.277593775136437 2.793074304467314
H 2.482785716502396 2.097163434470105 2.0069914479246775
H 2.4702609732681418 2.075652813323802 3.5713496407725094
O 1.2712943821335458 1.3305632176608384 0.19841129194947793
H 1.4036159229439897 0.580699253572076 0.7095450346486819
H 0.401184833093442 1.6395657539628203 0.451383009919921
O 1.6355869518237431 3.791796750321694 1.105732948045094
H 1.262008566149285 3.335894714282193 1.8911952556796463
H 1.2554832746862936 3.3474067194449453 0.34817087228551225
15
5 randomly positioned water molecules in a 5 * 5 * 5 box. No. 203.
O 2.3453025420267815 1.8712045546579115 2.987035625903264
H 2.3454132638099483 2.0066623299534894 3.9393936138846253
H 2.6466162988150828 2.6551260656885525 2.6449691006415184
O 0.5235019442198241 0.9667781988646124 1.8403779188861369
H 0.14546309262762047 0.41287176239062506 1.1670217586298053
H 1.3848914732711441 1.148272038633095 1.5463945352923483
O 4.859984761985304 3.5390008439345157 0.9308639254494178
H 4.2296764496613735 3.7145253770865154 1.6501944737820513
H 4.205819184318235 3.716583232546497 0.20267748789031836
O 1.3188538094280782 4.572048762686233 2.843598833401832
H 1.0559818340530633 3.7981325345396475 2.3201530815268265
H 1.0823311235681365 4.398664775293168 3.7236938197970586
O 2.1432637254838998 2.915939580575561 0.49140311174341145
H 1.2931125872995484 3.3904430540131942 0.6551108727537348
H 1.8377198474445127 1.9721979937009013 0.6630322151394001
15
5 randomly positioned water molecules in a 5 * 5 * 5 box. No. 204.
O 4.9110631171053 1.8151567608573234 0.5994039662192291
H 4.202569641994254 2.5051922983328394 0.41058400053265043
H 4.842833468520054 1.6184777246654218 1.5780672753543956
O 1.7052145192178636 1.9395088742346127 1.052394471668474
H 1.5554804631139731 1.7168327127934275 1.9874626192433764
H 1.9437750617312306 2.8840446920378664 1.1676515430509915
O 4.605015503318132 3.771532870723785 2.2558314003607856
H 4.089715764466643 4.522883234591735 2.1314938192786115
H 4.862961615089241 3.7931627555121556 3.207119156608757
O 3.7482630411712266 1.1668770882473538 4.143942144705942
H 4.5035833441272315 1.7093637224225016 4.080498414095372
H 4.126010016688079 0.3016599456013832 4.078901227521794
O 0.9093978769164313 4.745592551505618 3.867974416770627
H 0.1338334718385903 4.664861079531863 4.53382637602699
H 0.5355136804219601 4.346496080074665 3.109716621885041
15
5 randomly positioned water molecules in a 5 * 5 * 5 box. No. 205.
O 1.1251400778286098 2.8165480657918165 3.2818582275553094
H 1.2610835329433032 1.882296915945271 2.9520581979036016
H 1.4774545237563457 2.7605244032466536 4.116434305912323
O 3.9183188261280124 0.0827939830062735 3.066249148969476
H 4.531431497384876 0.24262900936880522 2.3824627863401413
H 4.198263035436668 0.6629919339498002 3.818566766736147
O 1.7063283142469317 0.6274044350969038 3.729516030514562
H 1.0227583777120355 0.5883375108317616 3.104136815213094
H 2.3055047198279826 1.1294828226720204 3.3292451806125993
O 3.226414835128085 4.570494003410809 1.7493970272299815
H 3.474980843538079 4.439684659846379 0.8461834119060454
H 4.011560217605605 4.4148391029763845 2.295284468638009
O 4.037168180905507 2.1813668430799904 1.939685632197511
H 4.009226350429037 2.443223561648253 2.9032099977294035
H 3.9934001806210953 3.0815467379286585 1.4409132418675064
15
5 randomly positioned water molecules in a 5 * 5 * 5 box. No. 206.
O 2.806990237502542 1.7458482210504778 1.587489259231163
H 3.437686887875377 1.568129246759181 0.8779582719186181
H 2.574061279610983 0.9001313427073567 1.9115063505266447
O 4.129752680134507 3.07388354496702 4.4282791787371325
H 4.360960250095449 2.592045829383287 3.6400777409087337
H 3.1734896757565596 2.9847844326119546 4.480011017804044
O 1.027759048749265 3.695982394292326 2.5257842072905468
H 1.2990377527913077 3.950969543261308 3.3788776829076976
H 1.8755632264510498 3.4677432571373052 2.0393712630115477
O 0.6613202763079312 2.256784115899978 2.1086743300607806
H 0.5458541888962544 2.1809154072496257 3.0555320911710426
H 1.4268507470646443 1.7183546477195444 1.9050106410052414
O 3.434559010443516 3.2894387109928087 1.6544832621878474
H 3.592124375535019 4.0110709714733686 2.259934055714279
H 3.080240762157506 3.726941460476679 0.8603962848684972
15
5 randomly positioned water molecules in a 5 * 5 * 5 box. No. 207.
O 2.1956533653795014 1.922125508990672 3.215001322163631
H 2.790829062263125 1.8769670960782667 4.028434013223632
H 2.8607656750399078 1.8131428162751226 2.497791223165618
O 3.0523070349042305 4.234938546122126 3.7408848791090143
H 2.9073262413059924 3.4421183640923845 4.191978488127923
H 3.434239553385476 4.01852114552362 2.9298644394317948
O 1.609827216340718 4.094683928094554 2.579303258272107
H 1.653693141952771 3.168145815633304 2.6149386339330705
H 1.826053566679439 4.389504152931693 1.71392567271422
O 3.881046037432125 0.7931577701399356 4.281188950518609
H 4.644792176339326 1.292252965410249 4.376250190590978
H 3.873826898008855 0.500583016639141 3.3559548532123147
O 3.9751683915735487 3.0611660488081553 1.3007132732872406
H 3.2186733463235866 2.786734606760464 0.8560041390162273
H 3.793646665938078 2.892543601263056 2.2019611435969884
15
5 randomly positioned water molecules in a 5 * 5 * 5 box. No. 208.
O 3.743174595298642 3.137955196410282 2.3043025966047153
H 3.910666456199162 2.691213550464699 3.1391781825075014
H 4.537358184148254 2.940685786622901 1.7850018545941237
O 1.121952037590539 3.089031139341974 1.4412672362928625
H 0.6767660749231794 2.6756787103719284 2.185276341397203
H 0.36885065555163565 3.302654064994549 0.8748173651979737
O 1.6467782156151411 2.535089779714921 3.695488766481818
H 1.0530253099883125 1.9926000712069238 3.215096778520912
H 1.3269851039419371 2.480795834215629 4.567295526131748
O 1.4173206753585426 0.6694504548643565 1.6008306588022647
H 0.7170015713150647 0.0932814945857684 1.903133604417544
H 0.9477674635211462 1.2856660932813546 0.9812730711382893
O 0.5007924374365669 3.8314768087724023 3.59514391081142
H 0.10038853196913455 4.396883609426589 2.933158060602447
H 0.17463967116083312 2.9082409426964198 3.3723468281541145
15
5 randomly positioned water molecules in a 5 * 5 * 5 box. No. 209.
O 4.096751510961951 1.9976388902512043 0.5445187448157374
H 3.636513383404012 2.673969418127042 0.028186456987167152
H 3.548583360661606 1.198315234911409 0.2980728447474532
O 1.9789183581363556 2.9724495372860433 4.690793820684835
H 2.8519323816689006 3.1463347471985683 4.486829110858488
H 1.4708703462397636 3.6104914052843213 4.241857911381024
O 2.169470803976881 1.3974239074562926 2.7861685894188937
H 2.82559825243104 2.076991957221316 3.0860251780520276
H 1.4325876994071103 1.4031074521662965 3.427671777887
O 4.481566066648569 0.3279388191636745 2.089009757383759
H 4.0921625091102 0.9278478597925164 1.3808877498582142
H 4.190448901158138 0.6155564158289561 2.944614377183582
O 1.2707896704167183 2.6443757342363403 1.8368914277552062
H 1.4486936234423455 2.715641355859995 2.7845103725354177
H 2.1565340682868777 2.534609134879264 1.4065107017894345
15
5 randomly positioned water molecules in a 5 * 5 * 5 box. No. 210.
O 3.5649442188118226 3.79875302124298 4.630770793579661
H 3.118462149383748 3.6097840273886126 3.854012874122771
H 4.554297822133745 3.5536088036296545 4.512664932585673
O 0.06463935764213391 0.34871383564397507 0.7695855839082799
H 0.15477036535650457 1.2268714700610217 0.5679295112348454
H 0.9151646867296614 0.2279269788084301 1.2229905766330824
O 3.1668642447402644 4.754044340035806 1.1241461101363803
H 2.7461466184840972 4.000106273408775 1.4446323006564685
H 4.010810455926867 4.43976752295909 0.9132856994885394
O 4.0702688732193675 0.4045047833981802 3.9414562735660796
H 4.648463486009922 0.6278424400169358 4.688817327394153
H 4.676775638640341 0.6393559030965613 3.156449624347893
O 4.162216933547665 1.8862701626576694 2.0031541600614804
H 3.840668420087487 2.3947829686700146 1.225560047282345
H 3.4024607202501054 1.5644007933110613 2.4721536387049152
15
5 randomly positioned water molecules in a 5 * 5 * 5 box. No. 211.
O 1.9636219325031823 0.33862864958876415 0.9274983642895401
H 1.7513172092832765 0.6864066322031236 1.844105166706382
H 1.3443528682843635 0.8533183769288435 0.27719995869784664
O 1.1966081451495665 3.914095338742812 3.8003746308869806
H 0.9036678782578019 4.777378792417349 3.9359658556626465
H 1.8225608497924468 3.9996343858772216 3.1287832608460957
O 4.093702422462815 3.738210987352313 3.2841119287273157
H 4.824300907923772 3.67759823390254 2.632362541072809
H 3.3227031275012475 3.183551297782101 2.9197814007230356
O 3.1681510425477333 2.21310405054929 1.400556281139601
H 3.7100959953529893 2.05314371462231 0.5822799561967027
H 3.687964752487078 1.7790925341302077 2.0940366909355106
O 1.4312420841440443 2.35442974579571 4.354721737065606
H 1.892278540019553 2.539630226128553 3.5225506779517355
H 1.7657936743428195 1.5122437436058123 4.665890224433749
15
5 randomly positioned water molecules in a 5 * 5 * 5 box. No. 212.
O 4.699241901277756 2.4870304572285566 2.2362015808362075
H 4.750756035783816 2.4257787360242378 1.3013209682396243
H 4.676209559602004 3.4455755506872525 2.3977650107776465
O 1.16024233643655 4.556362837093953 3.150542592366577
H 1.8813107654526702 4.988325970673907 3.5938236255000566
H 1.5162669386491405 3.7811572045617377 2.8141371725620945
O 0.9799080142508676 2.7154084023438134 1.034631217354101
H 0.35693231378807666 3.1640143393437072 1.5610250982454585
H 1.3826778636617933 3.34564017044647 0.4615255380851384
O 1.4494062467620434 0.8091227546719193 2.6873799361791706
H 1.3908985882390315 1.8016156686745368 2.8270098298596755
H 1.669103400333911 0.7117540189352032 1.752651110323033
O 2.3502856090714834 1.2013147624541594 4.874212475407989
H 3.37124460633245 1.3701645407706462 4.919553418992457
H 2.281200779197842 0.5273207856429962 4.170117841848668
15
5 randomly positioned water molecules in a 5 * 5 * 5 box. No. 213.
O 1.1358612271472173 4.413979115353944 1.1957881785575708
H 2.065753812428592 4.400091704939347 0.9965569335081883
H 0.8612482594099266 3.5247511555063493 1.0776127996569391
O 2.9983654670365474 1.7478338822335204 0.5504836181020129
H 3.8555137538783475 1.5083060433678286 0.21008720537934106
H 2.4897925874290765 0.9658722052519908 0.5234904106703377
O 3.4291996660796653 3.4071648066645293 3.0136316584430363
H 2.921600085897773 3.134432058061513 2.2588983513914966
H 3.030573974278889 2.9668286431047783 3.7821142617454595
O 1.176569599394142 0.5950933561551724 3.722129103780476
H 0.9245779464395012 1.3905588693224278 3.2282929052549565
H 1.6006468403339342 0.06918262969506317 3.1059211021182493
O 1.2065329783180117 2.5743183161779957 2.2430418916886206
H 1.7729836170119369 1.9568079507110694 1.8230872212410372
H 1.4733233556173233 2.777474330656184 3.0834702876980056
15
5 randomly positioned water molecules in a 5 * 5 * 5 box. No. 214.
O 2.2116080657633477 4.979117508934595 2.1995587455419745
H 1.7057118370109188 4.1576623119105465 2.48187776515711
H 2.787042217796954 4.629115087606071 1.4289989950726671
O 0.9698057904069468 1.5051627085174872 2.925047835503325
H 0.6389975278180506 1.7735601311011915 3.7552594490195133
H 0.1841444548384341 1.706182707027133 2.3658917264058537
O 3.224879254570058 1.6808020421002827 3.8429240047062887
H 3.0801675982398407 0.7705400294873109 3.489377160722479
H 3.282775445840848 2.1268998664635297 3.007962665968266
O 3.286561517907398 1.1641989323374329 1.3248921105286966
H 3.8384486718735085 1.3292939233823973 2.0622926572839146
H 3.8637340990617215 1.3407567023413778 0.52056523490217
O 4.094610994863309 4.216071824358523 4.308410969696764
H 3.3646903558819083 4.1580916849601115 4.909521269272759
H 4.629721793377212 4.811369008137501 4.67560111889509
15
5 randomly positioned water molecules in a 5 * 5 * 5 box. No. 215.
O 0.7652121273350859 2.548763214460828 1.1719178479030345
H 0.7058279986498058 1.8776158048080385 0.529550903115132
H 0.93542040944443 2.1387480495964235 1.9409765908814047
O 4.866681215102589 4.741874555356793 0.7426222735318522
H 4.698963599533357 4.153355342993755 0.03130404999126002
H 4.4327576553748 4.36219441762532 1.524460189907614
O 3.5073382847457406 0.7999558454203565 2.577392640662039
H 4.083624915977203 0.4722959709510125 1.8185317976295874
H 3.9873201198117436 1.2202120782225654 3.1501184024608353
O 1.9178926034502748 2.1679260567256495 4.634596663906395
H 1.8886350420379445 2.874620029231051 4.015742848531867
H 1.0518058593692254 2.1573843609659047 4.919388568807947
O 2.990742596191751 3.2273895728949062 0.8029681505470343
H 2.440728316791513 3.384402935934217 0.053143016042051405
H 2.6554674607604007 3.849085402894909 1.462775818314058
15
5 randomly positioned water molecules in a 5 * 5 * 5 box. No. 216.
O 1.5358767954995716 1.328641230707603 3.7143403802331623
H 1.4879919827329373 0.7026452949671567 4.3926339531072225
H 2.444621817980197 1.3559689484796345 3.5031912763356527
O 2.127169184407389 1.0766230537112147 0.23681705326973612
H 2.889220278066708 0.4995022981680566 0.22380544409930497
H 1.4105074767318946 0.45353567858653265 0.47798556557206007
O 1.7624835180485983 4.303572405967577 3.201617981938523
H 1.9545346686495808 4.712493192562072 4.044976745072562
H 2.2771824950340327 4.811138488138888 2.570800107477563
O 4.595435124170183 4.284742164372923 1.069528509941549
H 3.9184595262309485 3.8201030513669925 0.558112892965685
H 4.148877675470287 4.615925978818409 1.842720030374763
O 0.3135848966228383 1.4429324787097741 1.6738288657128342
H 0.7237247859907036 0.9049713204601955 2.3921904075940956
H 0.2974661704967122 0.8534973767421931 0.9961463360544259
15
5 randomly positioned water molecules in a 5 * 5 * 5 box. No. 217.
O 3.8081875901905464 2.749003984430237 3.224520999191149
H 4.241122493923572 3.081138160687071 4.085372051627022
H 3.5364112488723554 3.5687622099786385 2.7363884105846785
O 0.931061289997519 3.753906302768391 3.531755236985632
H 0.5041099306375227 4.588138721674763 3.373084055698491
H 1.7693296277536552 4.034309862651559 4.050703772860569
O 2.8758613986675967 0.37829116665685003 2.2313483979025035
H 2.300219156379783 0.6415942291483338 1.5340900647028888
H 3.7400886858698614 0.8991097422723358 1.9613043954758214
O 2.851011364002427 4.621404566795535 1.4142963879663877
H 2.9654284493011085 4.662312689894324 2.3275528825879945
H 2.918792359631947 3.6229800756826496 1.1226498866926629
O 0.2373160370322308 2.4301285277576037 1.3998077456732978
H 0.07777558410383001 2.1401380627378805 2.309086392098363
H 1.1031410975479132 2.158870280163924 1.1806077131271353
15
5 randomly positioned water molecules in a 5 * 5 * 5 box. No. 218.
O 3.9391835571484224 2.556779488075151 0.9503689487634553
H 3.5753951647953657 3.2606315599008573 1.547638786315969
H 3.2934790694262905 2.2417046044812565 0.2696051270713772
O 1.0868514235317024 3.678748990180374 1.894216962017492
H 1.6245090466551788 3.1789204799077457 1.2284472815677612
H 1.6523526856255897 4.418250310120383 2.06716693404729
O 2.764757616040824 0.7640500045222143 3.507068314904352
H 2.9652710216691522 0.2746770176221834 2.721192888247904
H 3.5693238591823175 1.1799340786130077 3.784790555369944
O 2.104968662646986 4.201208133571303 4.458433463545851
H 1.6942369685798258 4.92261360319491 4.876948821074696
H 1.3966083065154233 3.670326404464454 4.0185457278598316
O 2.361569881527707 1.1787647037437026 1.1096676164675456
H 1.9553058356199342 1.8269918540964687 0.5132739810150966
H 2.963886187415771 1.7229230560194495 1.6174561583267428
15
5 randomly positioned water molecules in a 5 * 5 * 5 box. No. 219.
O 1.4156677228603503 3.6732064476662734 0.9516182344474011
H 1.6377151400367618 4.3144445867296595 1.7125344349754883
H 1.639684034665913 4.046888025772066 0.11285742498818752
O 3.099954494835994 2.770844986992584 4.324502824100753
H 2.65118748818316 2.447882968358928 3.495583202004066
H 2.395465949560985 3.1535544470321275 4.792494649580772
O 2.663679358350172 2.4432031490954316 0.9065232276116453
H 1.849054642412973 2.028344476943358 1.1958717591796353
H 3.3056963910763546 1.7263535040066733 1.062596266783484
O 0.2278336548883908 4.073078197019201 4.1077164188811635
H 0.32808221795953263 3.4285538839231435 4.830255744330651
H 0.914095449211304 4.7595794811847085 4.3234950623487585
O 0.7102465772765809 0.8318199694099665 0.38527744079862314
H 0.3591856516718443 0.7358790765424726 1.3153065644165953
H 1.2142074141344796 0.04180819999985397 0.08222971618587827
15
5 randomly positioned water molecules in a 5 * 5 * 5 box. No. 220.
O 0.776661408117626 4.487291038905062 2.8389959609176914
H 1.3864408881253882 3.8180125940583074 2.561813508765401
H 0.7196604770398599 4.32718621651184 3.7562333756933453
O 1.7309043649053506 3.655182478637081 0.6786950160678945
H 1.5869795559063193 2.7434797270622413 0.7791036761933116
H 2.0675718463401824 3.975064016030551 1.5600966399973186
O 3.6504940330253683 1.8991363471562805 2.70940129512701
H 3.0651608338169773 1.7453127812929035 3.5103844023187545
H 3.3725843996472165 1.1248974962828193 2.169888139102251
O 3.966995320748153 4.549252142164584 2.4497546190687163
H 3.184629966857049 4.559710525297464 3.0123600480776194
H 3.680314829453804 4.566125376323074 1.5149491893662033
O 3.60681822011419 1.9676915857837507 0.520230723332501
H 2.675544427612616 1.7290678883219321 0.8263018947627009
H 3.6364545020757846 2.77724749873508 0.010658541601490379
15
5 randomly positioned water molecules in a 5 * 5 * 5 box. No. 221.
O 0.47281685070824864 2.9185396712958678 1.6719117410488256
H 0.06981693134898226 2.6429044855749155 2.494328056060156
H 1.3477865229714105 3.2521719519120142 1.9198221290307642
O 4.139831190352051 2.0047756514199113 2.3888591088197186
H 4.209731539253325 1.6731702127453216 1.486957501363166
H 4.95932574157144 2.491146758528625 2.453609273835677
O 4.188331879314499 0.23248641962698213 2.8461675772758577
H 3.6269904412649456 0.30486516604348024 2.0823269358012855
H 4.797467642679148 0.9499089520254348 2.780538225602037
O 3.0022441024416286 1.3703666208596665 4.163055672810611
H 3.2814794984536197 1.7508003982108056 4.964162440707824
H 3.53041349641972 1.8227813009818474 3.542947565158267
O 1.9616816269270316 1.5093086201330574 0.5391945346928856
H 2.824391255104752 1.6472623805910613 0.08244562468191574
H 2.121225067906756 1.7455080162740126 1.4485593100973673
15
5 randomly positioned water molecules in a 5 * 5 * 5 box. No. 222.
O 2.386346296566177 2.187329258967912 3.353573808143585
H 2.0930068490908442 1.9733800281969511 4.160888449431265
H 2.6951441128608917 3.1340094598292874 3.3714467746529535
O 0.9821001624611309 4.143487990030278 0.4714069312890262
H 1.3728521058445748 4.201546357266481 1.2660863942574367
H 1.5995784145596141 3.624091190820878 0.00017599717556249228
O 1.3258444796395252 1.048932454396272 2.3723943845333153
H 0.546064569124831 1.5825676758780824 2.6263685101996943
H 1.5624722508988753 1.4089860535448337 1.5011632468712135
O 0.5535827210802713 3.0718811064215195 4.5994374133968705
H 0.23361308856368507 2.7226107085991273 3.8545634344539126
H 0.836941664312673 3.8961118152962717 4.323920709395933
O 3.5605559100674578 0.8999868080878393 2.9252692008828642
H 4.287873853135126 0.2833076546730118 2.8264571471795747
H 2.7564454188932497 0.46164599676039275 2.7646032364689503
15
5 randomly positioned water molecules in a 5 * 5 * 5 box. No. 223.
O 2.931380274706531 3.4565337034372816 3.8026380488024776
H 2.962302430802531 2.5751699414399685 3.4823669141846225
H 3.722383897512768 3.896820086021351 3.46793563671699
O 1.9532980175225412 4.862262905569246 2.3370593121289756
H 2.542231503803486 4.1699930739142435 2.1225501732346013
H 1.2663099422889317 4.412643872095819 2.8872673244551654
O 3.9570801190359894 1.8195916649241572 2.3501545847555176
H 3.1008461339692923 1.6660435562370064 2.0351515936604794
H 3.8297107580303233 1.698317554514888 3.297690274879606
O 1.6238444779640289 2.172568298264336 1.6432877922891875
H 2.4265285292667187 2.2419999323452644 1.1651371680089802
H 1.7733278700414028 2.055904624825623 2.588527539950114
O 4.631027806508849 0.989171830120118 0.9068640737914074
H 4.73751530989907 0.5909260717910663 1.717875276130476
H 4.763827037217557 0.27826599424595144 0.2663381453009859
15
5 randomly positioned water molecules in a 5 * 5 * 5 box. No. 224.
O 0.7008051649424252 2.9829238654932326 1.749809599030332
H 1.5275943505102911 2.831236897980628 2.1754218312970526
H 0.9463035489452412 2.7943702904190246 0.8554704252093358
O 2.878919331981364 0.565616576299931 2.0156049287508555
H 2.6117502299483073 1.0722466957177668 1.1856539228106917
H 2.808845972229288 1.154254917536579 2.7012478786472736
O 3.8123718756999625 0.8515436155090811 4.024819726230266
H 3.3096990905387917 0.08052801782639107 3.6213040486936916
H 3.785489500668452 0.6542764423876832 4.952933631263392
O 2.6508360676961322 2.9304397423128927 4.685154275071931
H 2.6761408098879635 3.801783206566885 4.272829540057837
H 2.3049805007543007 2.3689472181057485 3.994889304313466
O 2.2687037371950147 4.218982525485917 2.0212027342759624
H 1.770443612092435 4.322771888927956 2.8139545585952876
H 1.8480012680991533 4.8343178446330395 1.4373684719959683
15
5 randomly positioned water molecules in a 5 * 5 * 5 box. No. 225.
O 2.4217394696526857 3.428000047076543 3.7393967685780245
H 2.2347912569489026 3.888879097322993 2.8882011895904762
H 1.8498527075465923 3.7584514794684036 4.37499625381111
O 1.9577987693107557 2.307996496887012 0.933745452789006
H 2.1109305050227887 1.4105024930189178 1.3359082007137044
H 0.9992358322703399 2.3944661036016868 0.7571260121823367
O 4.18733749978537 2.3000979219807496 1.960187545134735
H 3.905615165431702 1.6252170633839298 1.3106674928628221
H 3.4447771112301115 2.8919332497862458 1.9996651571175397
O 1.346111894708046 1.4306260891916134 3.1893143200074276
H 1.0300741024746303 0.6726249782292528 2.9166598901996803
H 0.5921159350166771 1.879524631401781 3.5609597597538336
O 4.59970528962718 4.673807297288634 3.9501581127337655
H 3.763019996863175 4.966321643570149 3.612354431296189
H 4.319288297422017 3.8481755043045447 4.363772545276093
15
5 randomly positioned water molecules in a 5 * 5 * 5 box. No. 226.
O 2.015047757350532 3.3241614781092714 0.7360958378756721
H 1.4572183430678314 2.8119060997743555 1.2755147540787948
H 2.4342278244183833 3.9136273353369515 1.3729371986380807
O 4.122239553284432 0.6286456846120325 3.201578515808776
H 4.22692697122425 1.2234295591615307 3.894954262940541
H 4.228174220484661 1.1824960960269046 2.4318464400221704
O 4.048993597683502 2.868206926275497 1.0222625869520612
H 3.2004645077858953 2.7300550045517276 1.5009947254444114
H 4.541982719447273 2.0456566545231123 1.0572301170423302
O 2.3126850804031345 4.161144390488173 4.225136813690571
H 1.7973025184747935 4.897327176602378 4.310690013710079
H 1.9425952009280472 3.5662193536188074 4.884543483928182
O 4.002214809966506 4.27111110632525 2.133105227597648
H 4.4662367514417864 3.5025229212433104 2.4864815810276717
H 4.481088185974942 4.222332345138559 1.2820525716584035
15
5 randomly positioned water molecules in a 5 * 5 * 5 box. No. 227.
O 2.077953395993462 4.898355563156594 1.0999845779473887
H 2.9188634586494118 4.597246680188114 1.2705077083704304
H 1.5660388803334668 4.4444553414757815 1.6911332495397293
O 4.417435455205773 3.732461656751717 0.9069441879246054
H 3.8585905401773606 4.3442424500900625 0.5108714154801518
H 4.361343944573983 3.838073362771204 1.9118345245205215
O 1.0979898146869715 0.8067656104417609 1.3690904585882597
H 1.7681086298695563 1.022203970514309 0.6756333032472097
H 1.5149905198181637 1.0572402984691078 2.1819580691157134
O 0.4198789048463186 2.46149530485659 3.7232932752478916
H 1.3146524239963244 2.784180590055569 3.942833544003606
H 0.04775174899545409 3.1904581326942574 3.1739510269877114
O 2.9978240202971227 4.855908104137991 3.3523989322175227
H 3.2853606205862893 4.435157579801068 4.145732565174964
H 3.409505345278455 4.2544452311685195 2.683493021953369
15
5 randomly positioned water molecules in a 5 * 5 * 5 box. No. 228.
O 0.34675757932621065 3.9317953359162927 3.2459731926714404
H 0.04931235674898393 4.567968917503992 2.5863178918258303
H 0.8013074591519815 4.495729203651692 3.877254364294949
O 3.2696842831097648 4.023986729720759 2.5113370866281026
H 3.4447165585951 4.912005738798049 2.7710857317318673
H 2.4674635004989645 3.710184101534201 2.9535715067168598
O 0.33133021892551295 1.6616676424747334 3.5896061768578944
H 0.10563030597898715 2.6567032949856575 3.4868642823994858
H 1.142999144107353 1.490152499269774 4.211712561128537
O 3.0713445916832454 1.203512248432121 3.295415601446261
H 2.508829532513321 1.1562292779548073 2.4840010482126997
H 3.9177684478010946 1.3876982836981497 2.998866919824709
O 4.5198840465311365 3.232426148656699 4.651370137840274
H 3.7890782917181474 2.620002907652327 4.540642743186374
H 4.761473291818925 3.4558424001889403 3.720116518016492
15
5 randomly positioned water molecules in a 5 * 5 * 5 box. No. 229.
O 1.379391225766038 2.119666645757437 2.03462528795706
H 1.2290833653143753 2.915889292584259 1.577427957626595
H 0.7176560210640253 2.1183601465696045 2.6881359617204863
O 4.482176591140667 4.828130002871431 3.7924735005981374
H 3.7961748120211873 4.47504164736616 3.174736703296246
H 4.157362127182008 4.632556245380778 4.646715949491245
O 3.970922295322698 2.6085759462572824 2.268817791173912
H 4.34217394341603 1.769261239802003 2.0018246023689574
H 4.07338812914256 3.139184470023041 1.4255375631269773
O 2.1729458220201714 4.005004299352656 4.805961745197143
H 1.662712269056163 4.710496205509047 4.5213408493002705
H 2.5321907407908553 3.62376731681055 3.9802388788092244
O 0.3573064087073119 0.666131189859947 4.198653777865678
H 1.1162440430166383 0.9027971275265498 4.662454226324521
H 0.6130510261202318 0.9017172470146504 3.2822525112971306
15
5 randomly positioned water molecules in a 5 * 5 * 5 box. No. 230.
O 2.4139912098510203 2.979809912775529 4.7785371406211885
H 1.8573286643242435 2.6470710948631067 4.105656622535878
H 2.1812161110615693 3.9180780428373376 4.913604636870003
O 1.9510963988959606 3.185405456786279 0.8466642488860893
H 2.872470249583314 3.4934803430992107 0.9413654078058997
H 1.5334464973336424 3.5857567304968314 1.5998361272233574
O 0.6995945388433039 1.6670790827505906 1.7596713436417233
H 1.2595323849063287 2.123117609760676 1.1795268246736277
H 0.36891631794371543 2.3065332590876064 2.3816555247822007
O 0.886931756837469 0.1885465358777655 3.6347848501797184
H 0.0867090364057268 0.02979300483632577 3.0990173489701967
H 0.5868269730947723 0.3895603697142598 4.503931185885043
O 3.8128918632488022 0.2516547492846788 3.92339299531822
H 4.011371149761469 0.27778642445768703 4.857464710793783
H 4.014173328600042 1.1298543070254274 3.5551053468346767
15
5 randomly positioned water molecules in a 5 * 5 * 5 box. No. 231.
O 1.7086328761847231 4.820204202154214 2.6017352318832714
H 0.8113520821182458 4.470110828307225 2.8143581359249152
H 2.1947130360323555 4.786132065023134 3.4336120052114794
O 3.7278142869534285 2.7548394237900036 2.876999664183326
H 3.7309004518569644 2.5831080185348743 1.9343279266776232
H 4.725263044439929 2.781955290829827 3.0687553217633123
O 2.476897742495105 1.9813656413605445 4.976851676488613
H 2.8319166958199884 2.8258558344035762 4.960756041733927
H 2.610200455427074 1.710923802382067 4.054659928773359
O 1.9156835952625784 1.978913640499011 1.5417358437457334
H 1.1137590087666152 1.958738293033086 2.0608885584609484
H 2.2827092591882225 2.8231838087704864 1.6846943004557113
O 0.2937246845630498 2.280872669550909 4.079676189032419
H 0.6440509564252677 2.68894356327061 3.249641919448452
H 0.8720356370144079 1.4963716963533567 4.234909667095218
15
5 randomly positioned water molecules in a 5 * 5 * 5 box. No. 232.
O 1.7306088672862052 2.2231325947543445 1.1736697220868781
H 2.3468612776088893 1.6383819811748037 1.393820942852021
H 0.9399046776269075 1.7783768557454518 1.2716620092932778
O 1.7555700542902153 0.4503545730602282 4.375875382659881
H 1.439137547705186 0.4620049282763344 3.505761253891675
H 2.693150528535564 0.29900206146147573 4.382869718332233
O 2.878060201510215 2.9276447763117464 3.2704567716448416
H 3.6710319313597135 2.5879079487073 3.006589164112722
H 2.933344221152099 2.8106144332547114 4.223825222626163
O 3.639221452474362 4.110501830300006 1.352875756560425
H 4.021878173299789 3.8578063915374123 2.197735144347809
H 3.201850136314298 3.3356173032280045 1.0282293641333093
O 1.654661683084469 4.001837656073322 0.7922430469900976
H 0.9281443674601579 4.573288747982819 0.8675758815648891
H 1.4285930546824892 3.3656701454646134 1.5178682715298397
15
5 randomly positioned water molecules in a 5 * 5 * 5 box. No. 233.
O 2.066959398028273 1.952459843689533 2.7616451284287797
H 1.5913557497344877 1.494309267718343 3.4312658539592586
H 2.1117611377076986 1.3832538881237304 1.9436914285543576
O 0.7497222447154261 2.9798600634096264 2.0931239210078525
H 0.45696582653100715 2.141961821595559 1.7004381228662961
H 0.8829702711424874 3.4949442941587683 1.3483801519491907
O 4.148230909547249 2.712096147122429 3.738569558595242
H 3.6914003441859933 2.982780938009763 4.597935135709054
H 3.7361039043975213 3.156867046049272 3.108357232831959
O 2.0938810916699646 4.56484760647246 3.858888022003513
H 2.701706684636796 4.48299458740881 3.1319340689073165
H 1.8802181228764085 3.6837476689098736 3.9910376211086644
O 2.9273178988213218 2.9236593514140443 0.854870046760654
H 3.6255155437991813 3.4359693251049737 0.36511007686668
H 3.07751210797289 3.2274941133549624 1.7048923794701147
15
5 randomly positioned water molecules in a 5 * 5 * 5 box. No. 234.
O 4.454074752289159 0.7599041980510535 4.52125985336836
H 4.5037201363633965 0.885923207667134 3.613065859867719
H 4.042902178863684 1.5394686477425172 4.8710322554086
O 1.9399934459902757 3.432030734482257 0.6427351025354372
H 1.1417515657910944 3.3820352457595915 0.09952067975599577
H 1.820015013527581 4.296485853246714 1.0916606540587857
O 2.290730394754531 0.29775679441386316 3.3673805024576047
H 2.3354637018206037 0.3110081228260816 4.326520662002534
H 1.5016486967017293 0.8720679111459776 3.1525757293386967
O 0.6053345975078056 4.46126014132381 2.4226481943304745
H 0.459708844628817 3.9287921789016056 3.219406815430662
H 0.6895764095037419 3.8362828577457653 1.6778589076311081
O 2.918793288794725 1.8740065790365978 3.3036279844174454
H 3.10954259574062 2.004065442887799 2.408246948434487
H 3.742263152741522 1.965026073634398 3.7318880690942486
15
5 randomly positioned water molecules in a 5 * 5 * 5 box. No. 235.
O 4.255267534614996 0.8787271892339538 4.641063634932977
H 3.581956590077417 0.6360107177208031 4.000464434129496
H 4.850576377042086 1.4499576721792042 4.15115804234888
O 4.389197897247511 4.588671061271144 1.0108920955040017
H 3.584843566640753 4.693449616465546 1.3921374130637498
H 4.274212906946984 4.235129587684319 0.17833577383068866
O 0.6399941279130611 4.833069012623207 2.178097953590699
H 0.402031423483769 4.461301570557043 1.3180741391418032
H 0.1596060556617182 4.298671908094745 2.810045255595491
O 2.589477058738967 4.1534002168968405 3.0990975820940623
H 2.060712489788485 3.274452270405704 2.9379955532417354
H 2.471689490825146 4.6528848620383485 2.327474780239581
O 1.9171337108000719 1.765629271572759 0.06616569211201073
H 2.516828930332334 2.2932224994895134 0.6763960697342526
H 1.2428987392540733 1.4173715890293423 0.6869783386833715
15
5 randomly positioned water molecules in a 5 * 5 * 5 box. No. 236.
O 2.3603406552571253 1.767289517872288 4.010426511056696
H 2.2687236314003143 1.219942246614656 4.787285528469353
H 2.940085926746114 2.430150397161432 4.269809802066774
O 0.8843967915893824 2.4017296448189636 1.9424847406699586
H 0.13354628098545784 2.1253033128849115 2.4613213940012506
H 0.5286690826184683 2.56678785329471 1.1306832248282097
O 0.9847692306372979 4.723264209722057 1.9675941249459472
H 0.9160458723133473 4.096433826753043 2.7103548471662333
H 0.8625024154705092 4.186038215359235 1.1649741913954008
O 3.3784591256337704 0.9567933468109191 2.064523990063829
H 2.7906439602338655 0.29347896537089135 2.540531659182182
H 3.40032720288612 0.6550024054838657 1.1892527470689451
O 3.444411700968949 2.082494377511877 0.5763149810356905
H 3.4798055576824667 2.9750422593104604 0.2806760398606359
H 2.6584465602609977 2.0295641895802836 1.0792026949269669
15
5 randomly positioned water molecules in a 5 * 5 * 5 box. No. 237.
O 1.122458792246549 4.013663521218888 1.8377027180541767
H 0.48756903403477847 3.4301364337678084 1.5889687974385345
H 0.6060490667356782 4.643003440368232 2.386283925450356
O 0.9076290062149278 4.3238146907802 4.854787031633543
H 0.5589148580005248 4.6376792238144855 4.031726613578296
H 1.1110548998586827 3.4296439331577497 4.721449420312128
O 2.5134098184275477 2.7339991965899912 2.2930427356232745
H 2.4959845493938593 2.5831744552217244 1.334119027785248
H 2.3270968207322444 3.6189014123118057 2.425709101154983
O 4.921201375845761 2.854307988630836 0.8935561449164098
H 4.222581981271604 2.7265652037448618 1.6298058846920331
H 4.981191899607498 3.790216430276434 0.8198854935173623
O 0.7586712632738818 0.9448062703921711 2.235833907382
H 0.0966007419522108 0.9806876264895983 1.5554460710936553
H 0.26520083736941896 0.7595588940078077 2.9809870737145
15
5 randomly positioned water molecules in a 5 * 5 * 5 box. No. 238.
O 2.6183540282193856 1.6365586720029102 2.7074995336258794
H 1.8496137902054017 1.361497567507126 2.2726059560123857
H 3.220622284651769 1.8772587154930984 2.018755742750124
O 3.8089786056539268 0.8921549720185268 4.240991710659188
H 3.025092501963391 0.9624817475708978 3.663042531792472
H 3.8619145248907603 1.7519301378751941 4.681995858249878
O 2.861260813013498 3.7646836535069665 2.065131960277586
H 3.209857011663175 4.405480887243546 1.388969758171565
H 3.3205940966868255 4.04949541532574 2.8533592309563027
O 0.6284503884336795 4.574588090866381 2.9084332246084093
H 0.7834088412432569 3.641136843271444 2.6797636931586295
H 1.4405499625555664 4.85458045972433 3.220211469677608
O 4.4305106987098855 1.079328396901641 0.1782807069292025
H 4.655042168064583 1.2799661058087624 1.0883343082277652
H 3.5309900260711053 1.2888450202431534 0.07536005836823972
15
5 randomly positioned water molecules in a 5 * 5 * 5 box. No. 239.
O 3.612527871551322 3.1668071424516535 4.9879693855111
H 3.763532730052403 3.73717542445479 4.333191437877181
H 3.9326651384487326 2.3441435913217896 4.646327260664367
O 3.921453036297145 0.34346516564371155 2.6093368212296886
H 4.658291246734694 0.7487849487672054 2.1334104903325803
H 4.053307114884623 0.5711547072810479 3.550436834690543
O 3.371611826411111 2.9144251813060755 2.041455298019929
H 3.6767960755847557 2.5944072031070378 1.2207374827687918
H 3.9493267009175295 2.461446166091102 2.609431886086603
O 1.3541214586788108 1.6215693186998892 0.7044661079615705
H 0.6506239980060601 2.2203288486132746 0.9220356208818877
H 1.8925503333281595 1.5026683450545044 1.5583477668175543
O 0.6206322229553018 4.235427045530093 1.4996484242854757
H 0.21388179763632198 4.695234286950565 2.262433890836242
H 1.3187160304545062 4.863991992434912 1.1709033181604684
15
5 randomly positioned water molecules in a 5 * 5 * 5 box. No. 240.
O 0.6648206728830003 1.0062304817430938 0.9099658938854444
H 0.9147116388695146 1.6432713339945773 0.3052993291290004
H 1.4958826623680888 0.8182367856993658 1.3210637820344877
O 1.0470331179865722 2.858959434252389 2.4321049995890025
H 1.7087267697127682 2.1760181225879074 2.6248998859229373
H 1.540448699131014 3.634640807259923 2.4312045020975646
O 0.420496616643225 0.9767229056934523 3.173271482204788
H 0.5068009481184363 1.3217548999627857 2.3060889829832685
H 1.2585785912360323 0.6246414555734003 3.4622162042009093
O 4.509396148509675 2.417229849089975 3.974313156739121
H 4.435945600926886 1.4847827562303508 4.174563785249123
H 3.770461037320751 2.687982286802366 3.366532093992363
O 3.007289186241471 2.1162599652160003 1.0519974736083748
H 3.6677944175511508 2.2667201370070607 0.3786053494485221
H 2.6160124256334583 2.9991417144018255 1.0907175126888338
15
5 randomly positioned water molecules in a 5 * 5 * 5 box. No. 241.
O 2.800965434156761 1.6217910195254075 1.6741360212972112
H 1.9482064875294764 1.4727717616735383 2.001672465749336
H 2.913280797034002 2.308324254814822 1.0301857054417471
O 0.07001732061222954 1.0486165876309412 0.9735954223577381
H 0.416745503491772 1.5238464039061856 0.1883305194730749
H 0.21468068863303996 1.6116498653016849 1.7294836037790562
O 4.897075077334631 3.1661484587501922 4.326604386793777
H 4.526847253854455 3.093079579431463 3.4781009247443153
H 4.274685664033706 2.7168860117694438 4.84493621368331
O 1.1487977185478897 3.8905693948719837 4.967965107195005
H 1.4014787487462583 4.329824312250185 4.206691573547145
H 1.4584660849679585 2.997292278805231 4.821278808783657
O 3.2558583182687824 1.8820519684365196 3.5314562444906636
H 3.3421416866169253 1.3758735481706643 2.7180793439725583
H 3.4313063850930203 1.3022953299472224 4.279883092345395
15
5 randomly positioned water molecules in a 5 * 5 * 5 box. No. 242.
O 4.62067096768474 2.7457722826345172 3.825252047008796
H 4.8340059105684245 3.524316823876728 4.342240607064232
H 4.235077307450576 3.0562169777248647 2.964889583274569
O 3.068920749008961 1.4151523221994848 4.196239842284247
H 2.6251944131488347 1.3828840685449288 3.4493338486303275
H 2.429712609177999 1.585352798177403 4.90562366700096
O 4.813058065314956 0.4965252325575109 1.410005892495783
H 4.983478087573175 1.1005254363245016 0.6266291901496174
H 4.130054467221866 0.8688191025445444 1.911440081630504
O 2.8729606419171407 4.7123536914781825 2.2198973497066414
H 2.2324272502236178 4.64050591840853 1.5276606102147114
H 3.638988070426562 4.34743830820118 1.8484078303331766
O 0.7851782121347017 3.9668754356575233 1.5293184938491682
H 0.19917168877523683 4.517049891519186 2.1001036435356584
H 0.1879938597276397 3.715808723235721 0.8190691800343443
15
5 randomly positioned water molecules in a 5 * 5 * 5 box. No. 243.
O 0.7152513876463168 0.8824867359736827 1.966636305543343
H 0.20205932517735403 1.195738729985118 1.2870731315690958
H 0.17365084276413312 0.9905479488049467 2.785275767520529
O 3.5370074716915267 0.3295666708272821 4.626045523544951
H 4.398095833056778 0.5988499561347906 4.801269266845173
H 3.4929085448384596 0.5036593029407292 3.685561076445974
O 1.9454700047504714 2.744790918836346 0.46647951434468427
H 2.2335913312803855 3.1170037379728996 1.2750464391989405
H 1.4902956627506452 1.9695147445761059 0.6963055510822999
O 3.560225732877443 1.6516013991033525 1.160177701700909
H 3.3512605168247074 0.9582397167528995 0.5222394470077114
H 4.190105884737709 1.2927629129859304 1.843789049270328
O 4.192558732456273 4.362487683812554 1.6984894849612742
H 4.549860065581419 4.577852054154033 0.7904353538933094
H 3.7118584078882817 3.5717174813230814 1.4886920343545973
15
5 randomly positioned water molecules in a 5 * 5 * 5 box. No. 244.
O 3.763643460408223 2.6574774398490177 3.0295248210333585
H 3.464740417310783 1.9130553456863089 3.5738967564934017
H 4.407043584248379 2.2732768237524748 2.4189301062260125
O 0.44328899431558266 1.1910817544876295 2.761082228912471
H 1.3408019079072728 1.2323051893383052 2.9766349012470985
H 0.013509849062140145 1.5553303412346278 3.4485442100821446
O 4.207016489774097 0.6405891974428929 1.7910779593892512
H 4.778462555935986 0.012893762754663696 2.14881052595514
H 4.821994981823483 1.278158857012255 1.4886104554019848
O 1.0484386451748722 3.3403542573749285 4.788638783405677
H 0.3185351855917522 2.80098650234825 4.482370968653534
H 0.6015424515553119 4.176102731807737 4.819414112000484
O 3.3598074434466603 1.803446335840031 1.2636274414695476
H 3.9886212124075215 2.39395808260263 0.8362746652926504
H 3.193118143271499 1.1625038192195254 0.5610582449881163
15
5 randomly positioned water molecules in a 5 * 5 * 5 box. No. 245.
O 2.8421478124144923 4.956187573588384 1.9042581415878228
H 2.9401417978307687 4.712091931738806 2.773666389338638
H 3.6892362209960723 4.910657557635351 1.5258571582219802
O 2.692212674633454 1.4721414381887665 2.9228636883510637
H 2.727662231073074 0.6726350538107896 2.4517814961968325
H 2.2820200501432124 1.2005608455324468 3.7369028973577008
O 0.8190631060163633 4.790911319223214 3.551677231728177
H 0.05501712897053901 4.951034997236895 3.046237198088925
H 0.8014165437767355 3.8395725300548813 3.7779745742505786
O 4.741243643972949 2.750037314534253 3.348353403797141
H 3.9219765023942754 2.2135172410153254 3.4720925889196756
H 4.942765939198701 2.8028937080197003 4.274664478999859
O 2.385490344045809 2.8721094742097546 0.795165040603617
H 2.2079491710894965 1.9947825401895813 0.3266250733338197
H 2.6879203357062114 3.5509494143984384 0.18687660442284781
15
5 randomly positioned water molecules in a 5 * 5 * 5 box. No. 246.
O 0.558563684753372 3.4244083938856322 3.66101251390015
H 0.38586873610394434 4.261099712840597 4.25728188484907
H 0.29431430577488743 2.661444370353853 4.158840435125663
O 4.1598615353840325 3.6173307022787204 1.6998386117233955
H 4.2773553133324915 4.5769654418057435 1.5808598304236017
H 3.2514636756572686 3.538411489785123 1.8629929758984056
O 2.3179710073626616 0.8907414246937351 4.438068938514802
H 3.2083894144035634 0.9887967838900014 4.79350530726944
H 2.456628665645449 0.2929025710772115 3.6639298784442937
O 4.310940727786903 4.731214374417169 3.9882985854792
H 4.454638904224514 4.065517919441351 3.307780389261101
H 4.640163287036635 4.2908449922898315 4.826508496596514
O 1.5166530144043695 3.2899004926514634 2.2606154363760753
H 1.9448424553057437 3.66498602510059 3.0452622242986256
H 1.1922110238961885 4.0249806646173925 1.8258110345488032
15
5 randomly positioned water molecules in a 5 * 5 * 5 box. No. 247.
O 4.059626553985551 1.722412288113525 3.7399241061770465
H 3.25727913553876 1.47762008489302 4.178802927416874
H 4.317570120911191 2.5570168742976307 4.109061877029306
O 2.933455256820582 3.8584443021134844 2.875270100400652
H 2.0420276793155816 3.8397015252750655 2.6159441082088666
H 3.251041836000067 4.69537600172455 2.772779105183285
O 0.14129135147389282 1.5580998060000546 3.3196758939002082
H 0.8288791655922436 1.5121895461558168 2.6821212718868352
H 0.46473407256788074 1.1177035073813852 4.116106467096216
O 2.6727682378478423 3.7374562117135532 4.48238875541641
H 3.472770238358948 3.306360664897513 4.689756455671127
H 2.0513766221379743 3.0145175323133033 4.404336280211874
O 3.113375531867666 1.2539284107532627 0.44426547844997777
H 2.9412221828931475 0.34715624657700606 0.5233957132282461
H 2.3691079513209568 1.7696967259800624 0.825367872116085
15
5 randomly positioned water molecules in a 5 * 5 * 5 box. No. 248.
O 3.61560473968563 1.7013342785214003 1.4000507130146849
H 3.5161373628493693 1.2214389055796788 0.5824751759657761
H 4.0667336729877945 1.1178059921079617 2.0405287181753895
O 2.2554771952572095 0.5560603756762311 2.4666928417539475
H 2.5977203288432054 0.6228393803038339 3.4122605125134324
H 1.3089538378364836 0.3191313472709635 2.5269247782689246
O 0.3729764298500321 3.967031097369942 3.8802798413609785
H 1.0985514992113938 3.8425742869036985 3.1751722465863974
H 0.683180389121845 4.668517012539331 4.409612316522197
O 2.621870435444073 3.69266201544031 3.4249278992125687
H 2.8285562907109045 3.268530043718758 2.536723276758137
H 2.804977432657172 4.575382060667315 3.2205037802864096
O 1.5924566450136313 0.48041560511897785 0.9351658118919681
H 0.7680847109018333 0.055819165637441936 1.2629072860691453
H 1.516914159270478 1.3745238422923145 1.3227444203014318
15
5 randomly positioned water molecules in a 5 * 5 * 5 box. No. 249.
O 2.8499833456270522 1.3527877457636812 2.6337551929467073
H 3.2891250022886798 2.130902511876334 3.04142473338905
H 2.181536979239185 1.1379828865858228 3.3021495774068734
O 1.2695199980130656 4.070937233776213 4.641407593553666
H 1.5853014471472768 3.199210922533603 4.585171832390268
H 0.39156853379418555 3.979760282176045 4.278063358684905
O 3.2946913441669405 4.201353166689691 2.995873168983879
H 2.5100090992444635 3.5808132788076708 2.973917970402716
H 3.5223145908247755 4.123948508119244 2.1085573998871565
O 0.6796771352911257 2.777368720967198 2.5231663008437226
H 1.4779961398750208 2.9148817000829177 3.046727746617411
H 0.9887044827094174 2.683050066409234 1.6315123048129434
O 2.25192374063023 4.398979741530039 0.6213870386295889
H 1.4627654216618828 4.713722543844568 0.11538652354966694
H 1.940960405873836 3.514329169701366 0.8279359600503065
15
5 randomly positioned water molecules in a 5 * 5 * 5 box. No. 250.
O 2.709396307394967 2.511690646543297 2.597278358131549
H 3.1195218663058886 3.272691285659882 2.992774380400646
H 2.9257080623039715 2.632251306410346 1.653566122863986
O 1.4304316210188683 1.0137512285723234 3.081604224329536
H 0.9532743955901993 0.8801158199750274 3.872084890429755
H 1.2045835767655169 0.31576541203431785 2.593555233634112
O 1.3410894050395856 4.234436126298555 3.053562343204432
H 0.7690540906758176 4.33424001043752 2.282135339543501
H 0.8222528539300918 4.410087078900132 3.8299855955719377
O 4.8125942587586925 3.0778699356283608 3.458162597622458
H 4.313552551839567 2.7577196946922813 4.164242834012615
H 4.350360111458885 2.8055930276558274 2.66752274130376
O 1.3705312664063085 2.741637446747614 3.9108877146661394
H 0.4775018834646767 2.3705824366807855 3.9503678179051924
H 1.6352904916951334 2.9524472636212034 4.826376922099001
15
5 randomly positioned water molecules in a 5 * 5 * 5 box. No. 251.
O 1.9183374052097575 0.8070524013065489 2.888433908154202
H 2.0696721859643934 1.7038369903577952 2.6648003024353804
H 0.9596981578108117 0.7444049001337553 2.907371048647633
O 3.008489411454607 4.123985250396077 3.547008299287324
H 2.699410744154218 3.2002534119346437 3.5260612047006594
H 3.8531185203994727 4.025948655684782 3.8967544898508812
O 4.419121038318884 2.4110336728652566 1.123581249463776
H 4.028918643989702 2.6208991744859147 1.9618999311754344
H 4.2478516527734085 1.4975625970059525 1.0352546359534258
O 3.8642144529885085 0.9077956836320461 3.642162819942265
H 4.347688297226157 0.5164138098544488 4.3985776641295775
H 4.3189827357002954 0.6369378047780743 2.8601325879279003
O 2.1991839586937934 2.560470293086804 0.9955389563221395
H 2.8558967499493897 1.934356429954188 0.44697255381327106
H 1.620309686501696 1.9869417861313707 1.5047336343974864
15
5 randomly positioned water molecules in a 5 * 5 * 5 box. No. 252.
O 1.5907476713543818 2.815380895592633 0.32327722012531257
H 2.111633646304014 3.0559244212161927 1.0787464975280492
H 2.0678263926424973 1.9805747766359607 0.03997584820939637
O 4.631922783484343 1.6014531828455651 4.5272466278986006
H 3.692757526245019 1.62865241982837 4.474902155150393
H 4.87578036774639 2.0853926359175903 3.818776424692401
O 1.9777308137736997 3.797818882632471 2.448645628420301
H 1.731107501581697 4.305428108690441 1.6880144721726733
H 1.36978953951771 4.05222662831684 3.152465200209433
O 0.3802185478327702 1.7030065288339968 2.6874107468690376
H 0.3908065414685834 1.7067849455056021 3.6329313733131308
H 0.6564790243482751 2.566686334502349 2.447630987638567
O 3.0034673192835832 3.751689716937026 4.122301451844988
H 3.008988453036725 2.933192912159175 3.6382590799847234
H 2.071550936955627 3.9404278593197595 4.219542091407029
15
5 randomly positioned water molecules in a 5 * 5 * 5 box. No. 253.
O 1.9739158498896718 1.3207804043334987 2.260027428895077
H 2.5496969868935078 2.0553408123220525 2.645474580644172
H 2.264333361149523 1.172615012033624 1.4226295562391589
O 0.6951452291524285 0.12024278985470038 1.4261089962504596
H 0.4530809180169829 0.5978743941427777 2.2580489609058
H 0.37903534421511514 0.6719518829172221 0.6641303328081561
O 3.3706010695717743 3.9140355442117016 3.6786135178092776
H 4.085044448946818 3.4106557169428062 4.02133940706058
H 3.714485610134651 4.425688423694892 3.008253922187326
O 2.1160630246166336 3.240696577563301 1.7862639237377154
H 2.651213517499961 3.902170268257565 2.20661711043658
H 2.4022684809278103 3.2886601690170645 0.9105113308792563
O 1.25269011798322 2.8160764251355537 3.6177535397859066
H 1.141930301771438 3.501029989088879 4.228233137166985
H 1.3954086974691307 2.054287917076639 4.231419961841544
15
5 randomly positioned water molecules in a 5 * 5 * 5 box. No. 254.
O 2.0649226458485344 2.2577591884954584 4.284458136162318
H 1.3681179869000406 2.7375402869661727 4.879168897432572
H 2.8226883851941302 2.4003068345729566 4.726144615525151
O 4.5613619846609685 2.8445698491906284 3.1006469351936716
H 4.696358536603395 3.6951101238152986 3.5332147885076988
H 3.771432029608252 2.745995942017362 2.6687424398450097
O 2.7333123389110945 0.4519200134245982 3.290847529871189
H 3.195210655500924 0.5276939200544298 2.4385826212381376
H 3.4057641268563277 0.2875131389927621 3.895270217368287
O 4.199660563648065 1.1470055980799971 0.9576878999576949
H 4.45477958886597 1.8245520372113768 1.5999462991355062
H 4.600217593163691 1.4498650142811393 0.14439590004465552
O 1.4323001830211761 1.2573411127934513 2.463739134505123
H 1.632893209821568 1.1614606391156133 3.40604141050087
H 1.4140680388327622 0.3445831761423793 2.1637639582394335
15
5 randomly positioned water molecules in a 5 * 5 * 5 box. No. 255.
O 1.286296415431799 3.7857192573404146 2.256774703110238
H 1.6326798863760426 3.3069515669210996 2.97915162951049
H 1.5869174742262815 3.2397253783017277 1.538254754145864
O 2.392329958677558 0.8372446497716446 3.7885062895321218
H 3.0373813389152553 0.7189492410943777 4.459510944900712
H 2.8971535471118415 1.273002594217537 3.0469814330049134
O 3.8961600837132178 2.7101757756525275 1.4866037413414839
H 4.470929127835616 2.2129408784241598 2.0738132361039585
H 4.209012601564393 2.4757374795460763 0.6302544459906736
O 3.5663627978624435 2.7579045789453556 4.100723227009451
H 3.085186471639336 3.1693180200315787 3.400485530055585
H 3.166203788719516 3.0875347075768604 4.910676151904782
O 1.6882151426604841 0.6360828706120586 1.609639464310021
H 0.7628324548208715 0.6324175812552604 1.5332832201402367
H 1.8810222514852182 1.282041452292504 2.2781671705638615
15
5 randomly positioned water molecules in a 5 * 5 * 5 box. No. 256.
O 3.4418030405474958 1.9891608786806414 2.0577173079851816
H 3.9157188797535687 1.651717965234187 1.3183269083023355
H 3.8615793350504153 1.5691749449433847 2.78584917276697
O 2.1615280352177306 2.634511321824662 4.100881766407462
H 2.1245024905461056 1.7003604229514795 3.9953645743519806
H 3.0676153860914073 2.8951547406457774 4.227425150154322
O 1.568423078791531 2.797292738214111 1.7569373266746247
H 1.4327982132557915 3.491627783522193 1.110897323329663
H 1.840277563843495 3.1782554603617363 2.5031712011039833
O 4.3891381936769545 3.01864746013326 0.5223132673671904
H 4.010851283785402 2.873761666602698 1.3817067911809193
H 4.9690433916694055 3.7424578094841605 0.6415629719829997
O 3.6313205689959256 3.9085166130440245 2.5736616654311306
H 3.943663832282593 4.311005480580196 3.340894687727333
H 3.989737768801214 4.390441220157668 1.844869185501122
15
5 randomly positioned water molecules in a 5 * 5 * 5 box. No. 257.
O 1.3910575995471386 0.5397230546531107 2.231192021016834
H 1.8933602128450235 0.6333603295370823 2.9844771415379174
H 2.048734046512048 0.39610395456183156 1.5123878924897451
O 3.565266377987834 2.262617676558965 3.9510583304093663
H 2.7874250257389948 1.8469090168629185 4.3232404415637715
H 3.45942008451854 2.489931670117276 3.060752808040789
O 2.086534152544037 2.0567384130790427 1.9598601678140337
H 2.89785015910133 1.533706115630587 1.7305348473716586
H 2.3612927672421593 2.8550626826958716 2.287004055867347
O 4.193145978377188 3.75538684555126 2.0032353104790457
H 4.310458428600445 3.4627868972729487 2.9245921670683988
H 3.710952879656447 4.59457708598285 2.132125669288153
O 0.596236833709835 0.5853536961923411 3.8747115871088744
H 0.11571659311278948 0.9955172439866966 3.112113092938561
H 0.16743004236523817 0.9438123421460523 4.63533779130697
15
5 randomly positioned water molecules in a 5 * 5 * 5 box. No. 258.
O 4.794650363427961 1.286472312235608 4.0133678674014375
H 3.9344667273046863 0.9076512999487845 4.010966114720714
H 4.989383748481673 1.357315276568967 3.022766857842667
O 4.544669552944926 3.5410107086610316 2.8651480045976956
H 4.061581794989675 3.6784652489264484 3.6738862645319585
H 4.158779452876769 2.6696179777084765 2.5202839439864655
O 1.2109021059837528 2.5134687666136255 3.6747075799816944
H 1.3725020691054786 1.6015296579026486 3.952937077022176
H 0.8254913518073094 2.965588318475312 4.441827272095043
O 0.9021222992128375 1.0633782334622865 2.3215284658022357
H 0.515880363034255 1.5002069202096182 1.5951970136483642
H 0.5048707534783228 1.4876602200088058 3.088846423194827
O 2.785815473194875 3.6355277357870004 0.275329363855617
H 3.7228830500256005 3.774988398114003 0.4558220684135989
H 2.3547627119026826 3.689274843534309 1.16170061078473
15
5 randomly positioned water molecules in a 5 * 5 * 5 box. No. 259.
O 3.2204755588292073 4.344018775566033 3.840184391106117
H 4.038428197674598 4.61443491836901 4.259485507531177
H 2.6669078068176577 4.094175240867712 4.56285160344202
O 0.88904760252424 0.49629464306127247 2.246222578174048
H 1.6755427271113805 0.02929739345607618 2.1761462627699957
H 0.9867173402726828 1.071118457071096 3.01734147379198
O 1.133049893616982 4.206397473223561 4.304370338056192
H 1.6487963903939635 4.392290096070749 3.46780114310054
H 0.37096373743449285 3.7158985217900966 3.970879146587186
O 3.560387432601381 0.3168808041344673 4.840251777346046
H 3.153612579745361 0.4722403529789922 3.991111921349798
H 4.428034650521946 0.1110103096532363 4.6426627096207795
O 2.6633050591106713 2.1696993810023857 4.1582037149209405
H 1.982385259919014 1.5583664940405721 3.8996788400487237
H 2.3369447576452522 3.0471132146051407 3.98986174004267
15
5 randomly positioned water molecules in a 5 * 5 * 5 box. No. 260.
O 4.563463571216787 1.5114839442850418 3.749573668979837
H 3.6145678189930326 1.5219685593685033 3.7563506030027436
H 4.7859329995333555 0.7575745437949104 3.2616368578862094
O 2.8684465736063034 4.325571557433316 0.8099580527149247
H 2.2731755640496374 3.7733900944001832 0.3271577600427244
H 2.9501670438472747 3.809519966816662 1.59330825516501
O 2.156001974887321 2.2947857706092556 3.960962582588905
H 1.3779635715528786 2.757794135468803 4.320954133251803
H 1.829551825019307 1.3972574269719051 3.6759783910527593
O 3.210180752713444 3.7416843146412178 3.9654752074946815
H 2.9743739774079163 4.59189442976933 4.230396484182269
H 2.747604095388572 3.656501610674603 3.1206681323478533
O 2.8261419055591332 1.8097012956494796 1.5820730312801434
H 1.966199882271744 2.291118997460514 1.7535439669410802
H 3.472228348907041 2.547773574100058 1.3973469149562632
15
5 randomly positioned water molecules in a 5 * 5 * 5 box. No. 261.
O 2.687408685974793 1.756386067852057 1.1092030773821604
H 2.8294018528626066 1.0001424037131508 0.5658666346414165
H 1.7894855126886666 1.6079418064194642 1.4110841589921388
O 4.178926979875602 0.5736678814031404 1.8972622071388119
H 4.781736818507099 1.113899257359062 2.220214827703168
H 4.7705286501837 0.11966049314347194 1.203498766423011
O 0.6830716550185689 1.1277396258300825 2.442516587032289
H 0.5945829305187273 0.3546716804872594 3.0351337155181812
H 0.3433261571605969 0.7916125548674534 1.597363737000331
O 3.688475524707493 2.526051602249673 3.211559435673574
H 3.823372534142581 3.1363520978899317 2.4623829152217214
H 3.8459791761728503 3.131782744581812 3.9373690108997583
O 1.84464916515156 4.172677125452847 3.402298202454949
H 1.1848547857209866 4.760850602834103 3.1528665649915064
H 1.6964048348583256 3.3920446488270093 2.9586590529869556
15
5 randomly positioned water molecules in a 5 * 5 * 5 box. No. 262.
O 1.3788816081367101 2.5715852412406153 1.9088534294482824
H 1.8278890983355507 2.9847967272669638 1.1313946844045355
H 1.8091167045112955 3.036136576397755 2.612137998894103
O 2.064850503644255 0.7449880627486183 1.9184860232272183
H 2.1399284253364494 1.3278171309112368 2.6819175691605777
H 2.1434974032886474 1.3057754304602607 1.1883262769946252
O 3.1604283728687887 4.501472750708212 1.3252181164566097
H 3.1108081131091283 3.752009753224141 0.6696402155862782
H 4.078993881141001 4.612396585256564 1.5321971904980172
O 3.538556212339058 2.398000610785525 1.3290044007509183
H 4.366235709193489 2.4459338714969316 0.7686193986581026
H 3.62098445106738 3.1735657079153436 1.8884653782760181
O 3.2619378945568873 3.4757808777203425 4.085910483510218
H 3.8164118020963835 3.0127348971779724 4.671393496005276
H 3.7285045805641546 3.463733755797317 3.2784056091967764
15
5 randomly positioned water molecules in a 5 * 5 * 5 box. No. 263.
O 3.2402575381263783 0.5853206926980414 3.7466135157323075
H 3.8842299123229536 0.7591175261325511 4.445893883072696
H 3.716244117213893 0.8589846736685103 2.9542852240868207
O 0.8452720477874481 4.288171442970156 2.5973663695748774
H 1.2778906647814565 4.343866685185818 1.706802766094013
H 1.5952827719237204 4.186932354988213 3.1382578229663114
O 1.8053356236407287 2.4311397539774364 4.34454564504756
H 0.9319670260248067 2.8473602374425395 4.476390183129755
H 1.563083365451907 1.6170929176581437 3.9956611943165434
O 3.7644523325149857 1.7731687815535824 1.1169335774500695
H 3.3381082430901934 1.424328646987895 1.8527728690473597
H 3.305238037106769 2.5409464289413424 0.7950380626415536
O 1.0341575422835487 2.2309100871649616 1.384524030691658
H 0.7410415822760161 2.787256713311817 2.140786979065545
H 0.9152245252207841 2.7552269997076806 0.6567014460808895
15
5 randomly positioned water molecules in a 5 * 5 * 5 box. No. 264.
O 4.081999787489562 3.9925746909510167 1.8970439282180158
H 4.586558917692176 4.262584917279238 2.6626738544783404
H 4.415820095008234 4.543764907962777 1.194732173536781
O 1.1968610614183612 4.659174551120436 4.3802807258525185
H 1.2079396269687903 4.426512432898443 3.474606356849495
H 1.07349248652873 3.7471944241636175 4.785666173202505
O 2.0355557524521437 3.387945276996109 2.5503630975722476
H 2.8297185326272105 2.991884092280931 2.257104948034012
H 2.164075806081163 3.3633437420309726 3.5148670908751782
O 1.5412901418268903 1.7975689477423318 0.5946741212827372
H 1.8356736229804747 2.468991945717106 1.1734359553849512
H 1.1862635987312726 1.1278301160720265 1.1817017636198854
O 3.5699531866764094 0.8797176306288079 3.4861702766769147
H 3.9145892098528425 1.0202612734319172 4.440041700256863
H 4.159785896640653 1.4526296073693343 2.9450958542640837
15
5 randomly positioned water molecules in a 5 * 5 * 5 box. No. 265.
O 3.2835277935294416 4.380030642444356 3.428782931911238
H 4.130729180175995 4.623737124282271 3.1353532442103744
H 3.5769144686317533 3.8054877232689406 4.208695576970183
O 4.429871999434881 1.6550892342500272 2.3350124582142935
H 4.768472297409776 0.8177570117650654 2.53029385481879
H 4.813551222717439 1.8470555516333074 1.4687353463651607
O 1.1940712924329526 2.465415286868752 1.9030573725774147
H 1.3999067709331179 1.7096592285350947 1.4335424272292212
H 1.4334315896530745 2.2430831179244857 2.8127323736313805
O 3.6041589414268786 2.9351837252573643 0.3037442771090587
H 3.82946698526387 2.4767067184126237 1.0692740606446085
H 3.029615207449903 3.590736604237085 0.7044333109185104
O 0.8596861975310177 0.07394244300860275 2.71063681997835
H 0.43715493204691513 0.446764769574223 2.0183677377653595
H 0.38985858161663756 0.3856950455574483 3.4307075875409443
15
5 randomly positioned water molecules in a 5 * 5 * 5 box. No. 266.
O 2.5508083982146346 2.0038210245620034 0.4977383947778613
H 2.0055228425175953 2.0150166731026573 1.385068843017408
H 3.5082874625991805 1.8916045421225156 0.749688037109414
O 2.1990903785869254 4.782307100041664 0.06178323450140022
H 1.923164862419854 4.945990677469828 1.0018130924030737
H 3.1490312568493977 4.690123810020082 0.08140649603474442
O 0.8193532050808394 1.0066654389280831 1.1449634093842205
H 0.11787665639407363 1.5654579064770315 0.7927089897543651
H 0.7138298082485975 1.0577423857061787 2.1467936002632917
O 3.9815139636306682 1.5869696952598134 3.8423968799083275
H 3.835085159373573 0.8515897784917327 4.367006153812004
H 4.424129808215933 1.361077474931096 3.0097431083622603
O 3.3244306960396566 3.1027981421840423 2.5292860975352087
H 4.016648636791303 3.5223303229855847 3.0631263006037157
H 3.5482975637576044 3.3138432888516443 1.6384739281611336
15
5 randomly positioned water molecules in a 5 * 5 * 5 box. No. 267.
O 2.832999029242454 1.8625098234567545 0.570401812108911
H 3.408051042046808 1.2120129221881681 0.914252244863492
H 1.9131336151932168 1.6455422342029398 0.8163718242336657
O 0.8614767306707161 2.852569147592235 2.1067165052837833
H 1.8043526146842757 2.956805017165891 2.082521225825287
H 0.7274877378927262 2.0505990006887256 1.5340384994941627
O 4.364290550787546 4.962472288952192 4.381161132015303
H 3.654091676397543 4.3109491890981175 4.616397837980842
H 4.949172509303606 4.431129071101356 3.8142344786164406
O 1.9457120579045712 1.0862351603758136 3.1255339258856454
H 1.644177361126169 0.4410388121255302 2.4504614361761474
H 1.839988401516983 0.5771098373364436 4.017132833410476
O 3.4792682685525387 3.039821988978288 1.3824063648959921
H 3.008744029417516 3.1818943879247876 0.6296859321186901
H 3.603424362656485 3.877506070333358 1.8549741678409741
15
5 randomly positioned water molecules in a 5 * 5 * 5 box. No. 268.
O 2.0128147401555925 3.5727068014045207 1.0974304456698096
H 2.502116131004196 3.2860772799026745 0.3678198237660716
H 2.5150819319689353 3.2781376896796073 1.8455802175207692
O 4.2235386939166 1.60006169325777 3.1681764073157836
H 4.691879131358642 1.6239288417037725 3.988089078166599
H 3.319448643782754 1.5435436330125647 3.4716639430089344
O 0.8867592215555098 3.2956027849770027 3.3066439807084795
H 0.6959211983004919 2.485436726316724 2.762604378525502
H 0.08388045968921354 3.466290118261816 3.739098734346752
O 1.6767259099075411 1.276988442183814 2.7448903708448915
H 1.134446582852841 0.655832086025426 3.139618461927612
H 1.399571144786957 1.255299036896271 1.8446697506276273
O 4.2192981520172905 0.6541981391079776 0.896950905340903
H 4.70863958428653 1.1144202285291156 0.22084589162432366
H 4.031776766520571 1.409906856129657 1.5270686731160845
15
5 randomly positioned water molecules in a 5 * 5 * 5 box. No. 269.
O 1.1119520730268722 3.791136681234528 1.0244450274152332
H 0.17693943057504846 3.620536672917295 1.139437966021113
H 1.4640818893519196 3.649544384245893 1.936189243154944
O 1.3755312390256198 1.3503043080453814 4.2721604420359895
H 1.230780394827518 0.9713381693123735 3.405280379555546
H 1.2611673079143835 0.5954792582085742 4.789590350855248
O 4.279735018670513 0.9584822226072343 2.8752596114048945
H 4.596221090891595 0.8662069243265551 1.9718204277944675
H 3.442590225258768 0.48987150016708914 2.929447323250222
O 0.7679100970910374 2.9378966026800657 4.213471123453515
H 0.7843588473306089 2.2853179646949147 4.919350367904483
H 0.7580413291062011 2.447286807557179 3.3507521581917805
O 2.3924137299297676 1.4442013761095185 0.2765634153506541
H 2.514988380371694 1.4697609675614172 1.2360165009132225
H 1.827884922913281 0.6828835610664254 0.0872496296068705
15
5 randomly positioned water molecules in a 5 * 5 * 5 box. No. 270.
O 3.4247245878228956 0.8496872219230722 3.187342733324072
H 3.484918211622415 0.25871976294062027 3.7978643136708463
H 3.6809207101211947 0.3904412919721738 2.407186357255462
O 3.2607598189031872 1.8842882744265754 1.3818714601042559
H 3.676981929148373 1.4639135866987514 0.5691497840569952
H 3.7478197874915122 2.672780670150103 1.453906771446701
O 1.4792716206051986 0.9314423873855598 3.0230111166427642
H 1.7315408190586947 0.46074158841048896 3.7800776039337105
H 1.9227033196540804 0.4324538720815908 2.3489705661760327
O 0.42092960368055876 4.430111533540896 1.560123763124341
H 0.26853505883915396 3.744129942725717 2.1965633922132652
H 0.16056270045100707 4.026998052109202 0.6761004065559434
O 2.635164172322649 4.040788633808599 3.3090618270089096
H 2.1421152379404265 3.729666831640235 4.060850320990746
H 3.1340902409727542 3.263197129444273 2.9855501433614435
15
5 randomly positioned water molecules in a 5 * 5 * 5 box. No. 271.
O 1.3960971649291505 1.703028548611671 4.130443596286347
H 2.2212123402559487 1.8702650966689556 4.624892707440905
H 1.6118969479642988 1.291686870060702 3.297077552914422
O 1.1031933459572985 4.725705928141598 1.4090904191266862
H 1.6171535368685608 4.495583613920076 0.6388267238905919
H 1.694390746977685 4.967402548998002 2.115802324977582
O 1.239386734294159 4.793089268555993 3.7058986914548027
H 0.9022064194149342 4.527414567796532 4.572195242632926
H 0.9356203840861965 4.143809200740348 3.0867268389737954
O 2.7985744842261284 3.787245623296674 2.6046900302962293
H 3.555322694167531 3.832431987637994 3.173824768150583
H 2.9318581993982766 4.383975480868713 1.8006465488237402
O 3.448607301976369 0.29981526788325386 1.85864060368041
H 2.9177063264505816 0.7844707795814774 2.519523486345585
H 3.6661510948724314 0.9662982226793098 1.3227064216587214
15
5 randomly positioned water molecules in a 5 * 5 * 5 box. No. 272.
O 4.373626023317911 2.2150019862179238 2.7098911091086695
H 4.533210866427909 2.1298902874095162 3.6437862033545443
H 3.6504607427552687 2.7896687859989227 2.7086534849384507
O 2.753506084487964 0.30374169693729414 0.8917072259756686
H 2.850953369388525 0.01603045639094952 1.8127309408487011
H 3.65346611061583 0.3684451734125838 0.5516715955301651
O 1.8669843124725194 3.5421805595591085 1.4567721888117506
H 2.0648755064865907 2.709432284492758 1.029629025502512
H 1.6234139833642582 3.3245592891434117 2.3559365557175598
O 3.8410033415458242 3.8426093294529347 4.005924479594544
H 4.407662048054199 3.992905513798366 3.3061867017484365
H 3.139759230783775 4.532670392205452 3.822909049458279
O 3.7847300873925454 4.1214822773108795 0.2993387342150605
H 3.0407155167445676 3.6302448455502123 0.7944210910074431
H 4.5889302421471845 3.636079895654941 0.46010526802202245
15
5 randomly positioned water molecules in a 5 * 5 * 5 box. No. 273.
O 1.7834118468823867 2.9580906464951244 4.385413507498225
H 1.672585994795997 2.8211847929252403 3.4253897674897846
H 0.9304905855591767 2.885120213702262 4.745681237413907
O 4.019871354172293 1.4978557396334968 4.3154839914763325
H 4.569566652117849 0.780396535485906 3.9106705494086023
H 3.406345022650234 1.0052630508843055 4.858326163153106
O 0.6167954122221259 3.5730475359425307 2.2852276911709826
H 0.010809739405485796 4.335148801117122 2.044216106989783
H 0.21765873798902624 3.229503115418853 3.044061361128934
O 3.531928860021527 4.157872874569285 1.0916718775426748
H 2.80697061466197 4.490704932079542 1.7071901198472068
H 3.042692072257555 3.9626079831506384 0.29340624932555426
O 2.013572474059342 1.7281526403578351 1.6726394217057616
H 1.4034370117953368 2.1798467417534764 1.0822666557363059
H 1.5604466919441031 1.7866440436334998 2.520183809963746
15
5 randomly positioned water molecules in a 5 * 5 * 5 box. No. 274.
O 3.662995856109264 4.156380106146129 3.8863654319623864
H 3.403764163680392 4.8190215721659975 3.1576511023186473
H 3.805870782226748 4.699116502990295 4.63543837082362
O 0.9279479645395822 4.5725377477413565 0.9720206417136573
H 0.3353404500571332 3.8696687910314522 1.3647876260148981
H 1.307935322374839 4.056994261572331 0.2385619463133709
O 2.957656378881635 2.585089161721407 3.6233562113077684
H 1.9757601617516602 2.7343513352378075 3.721092883683381
H 3.0939894164197197 2.1519958081276203 2.8172048834849277
O 4.459684178447632 3.2612792072643373 0.6925987996363875
H 4.83974993444991 2.4494152800864875 1.0020209242854468
H 4.161592364037564 3.7605796961408693 1.434157669063962
O 2.3161494641820473 3.368698263144948 1.7593536795688902
H 3.148185845988396 3.1371608543706344 1.9262415701214703
H 1.8096975516433162 2.5525279841082704 1.5796152765384124
15
5 randomly positioned water molecules in a 5 * 5 * 5 box. No. 275.
O 1.9363835140234502 3.539148999418453 2.1415709001899668
H 1.5371762306128796 4.411940862852159 2.445991324565947
H 2.844767553719257 3.763872397221767 2.025068271698023
O 2.2779978027027643 1.550185676984623 3.544409495624117
H 1.856117215418554 2.304201582256354 3.1092707184713095
H 1.6217675644680352 0.8118540409534558 3.696955310390705
O 4.027694514709907 1.851922103336186 1.5360166731560843
H 3.7274531132140227 2.0747081150623425 0.6748283003351373
H 4.800829999501977 2.352846498066043 1.7492523391245252
O 1.4889825323918315 0.9575469646435419 1.2334940361446538
H 1.9672099095058204 1.210637104738257 1.9414619480393562
H 2.113530739547449 0.8312698263346399 0.5306967569893009
O 3.2959996952473647 3.395583647648575 3.5914622429882814
H 2.5294051905204626 3.9753162852311648 3.511744257631807
H 4.010442790910577 3.9965761532972057 3.294090958908007
15
5 randomly positioned water molecules in a 5 * 5 * 5 box. No. 276.
O 1.413786802252065 2.6369617559510417 1.5159320366882483
H 1.6984524227618607 3.438678404382089 2.047457151801834
H 0.49408661949681165 2.761097027218711 1.3219538804195687
O 2.149542058829528 1.3779236688433723 3.3708371987685726
H 2.0021450651776482 2.134337380642771 2.7586409216392447
H 3.05928794809204 1.1511822278411363 3.2458755891732793
O 4.679097985023908 3.0895351020404553 1.573249572203368
H 4.022781069245372 3.0770861154148212 2.272555885145677
H 4.164922932609329 3.5896945803961544 0.8711667067436524
O 4.87432026049813 0.8750544725807918 1.4055550155260548
H 4.753519761773013 0.8822042867950888 2.358889965745331
H 4.503574932878639 0.05616893872788531 1.0845459885032294
O 3.12085227972662 1.0412780597866178 0.618432020617628
H 3.574485486407032 1.5375911322823161 0.002042447639856948
H 2.2278113862122786 1.0638557816630883 0.29444343823508917
15
5 randomly positioned water molecules in a 5 * 5 * 5 box. No. 277.
O 2.347318551716089 3.463423213685034 2.1326403280465818
H 3.2873226411992067 3.613832987072171 2.247974415577628
H 2.137368115469096 2.6122115899379015 2.634717708424754
O 1.5796321509560374 4.412996901831673 3.2502119162563248
H 1.069681151298783 4.265770680571793 2.4780494719289363
H 1.0025533470261807 4.319189895068894 3.9776637488921756
O 4.84026221157973 4.260775951438874 2.369009437090236
H 4.74217244262466 3.8509576118438633 1.5059970323623775
H 4.980816727357465 3.528999596962757 2.9810428816369017
O 2.6464793273363973 1.779758113067344 4.350277058158908
H 2.656772225227568 1.0400363693732981 4.998571775426132
H 2.7601615044124808 1.2971270504994918 3.4984368286449037
O 0.10548216648332276 2.887976827086967 1.5643710835826323
H 0.2991243450178414 2.6212788150355695 2.4697816078051162
H 0.43539411780090376 2.118042781945632 0.9576994277555669
15
5 randomly positioned water molecules in a 5 * 5 * 5 box. No. 278.
O 2.24776599002467 3.2404234236809777 2.481899857902181
H 3.1131583831109264 3.6095380745526153 2.1678549269769785
H 2.341000069686453 3.355468971081225 3.452467044581214
O 0.5247912435461721 2.6914303849925263 4.517471087584882
H 1.5194924834543622 2.639256799541898 4.345972093591062
H 0.2739712495412896 3.616017946513092 4.436552945083336
O 1.047236615459361 4.047948955127812 0.9963712355522014
H 0.5141375460044169 4.76884366924236 1.3514501533545913
H 1.9570036788257874 4.469649514456176 1.0701773110595674
O 0.9204250117799123 0.3267002513429257 4.008401219763421
H 0.023654062195519354 0.40394209793959845 4.1895308433195275
H 1.3283926701622972 0.8000162080190197 4.677756724878294
O 0.5303349472978242 2.5824662935392544 1.4555050673366288
H 0.8995339917901843 2.289594526481072 2.2683895186731062
H 1.218882777748096 2.2723036913474743 0.8236101410924118
15
5 randomly positioned water molecules in a 5 * 5 * 5 box. No. 279.
O 4.91537484767435 4.111382795277637 4.169189247083362
H 4.9411999041185375 3.524622283205124 4.968834342981617
H 4.137000627866469 4.587865540660283 4.319543894231787
O 4.100537315610973 0.34585536062720523 1.5023600317340997
H 4.009515823615206 0.14998622400582945 0.551281083528815
H 4.89377277175562 0.8890751004397203 1.5574114270304729
O 3.1748052922432906 2.592708577599377 1.091182015531349
H 3.638638888891446 3.174172480848415 0.5041309397214389
H 2.3809585430103724 3.0382522276281403 1.204889666935465
O 2.2353794170767487 3.862852014885342 4.125504344487027
H 1.601998362400454 4.438023426856746 4.520059725834085
H 2.320779264011943 4.197586908583431 3.2220879252313064
O 1.0396633391597365 2.3256919619422693 3.915719270144629
H 0.24110715729366072 2.002269453444124 3.6357431177912134
H 0.8828052499973139 2.6191254218540676 4.817795093490146
15
5 randomly positioned water molecules in a 5 * 5 * 5 box. No. 280.
O 1.633782965620552 1.619149912316733 0.8136218887493141
H 1.2326173134713598 1.2459735132814327 0.0503707675202868
H 1.2354336961840438 1.1125367580452217 1.4664173242940683
O 3.348573997435978 0.7621211306762671 3.9953132928605264
H 3.5490066177228563 1.2503984401774253 4.80565586808114
H 4.076206554089581 0.09259022798072869 4.041771398343639
O 1.77110160648378 1.4756112197603977 3.2410100776892463
H 1.344869770946656 2.2803638573348177 3.2008353080762233
H 1.9501172800182438 1.3743185062754601 4.168630173704021
O 3.4544206332638954 3.210743403658556 3.946222972908422
H 3.036180072806691 3.190144207625767 3.094111873343863
H 3.716416649438391 2.3210134819191124 4.05330375945454
O 3.4801893751607493 1.1089187199040518 2.4675994769625116
H 3.1012350083699998 1.8853856303650036 2.1800923699234454
H 3.9928437923587925 0.8000537675435386 1.7770882331990614
15
5 randomly positioned water molecules in a 5 * 5 * 5 box. No. 281.
O 1.8925565253277794 2.183553204810951 1.7047071898591282
H 2.8185902274376664 2.474230854454033 1.57922061212185
H 1.64140171034484 1.711673543781955 0.8504234251706124
O 3.3726443198317515 3.693354635964466 3.020855149093503
H 3.059354996717508 4.235284585501635 3.695099950095049
H 3.0251786194752066 4.0131012508241115 2.199312904273106
O 1.2530136436424284 2.320638057414147 3.9420101636196407
H 1.6933805237903239 1.7273313483430504 3.3931827293801144
H 1.0007510932984731 1.8530570582352526 4.723672544763147
O 3.51341849735384 0.7232291463139112 2.843690664914884
H 2.7670817797216363 1.1103245674055113 3.3896880244960936
H 4.155692704045503 1.3847348621879525 2.894488816296283
O 4.359300326673941 3.423619876508752 0.798084851201537
H 4.211242097784575 3.142768610021278 1.710356898351474
H 4.050715736142067 2.6889421486128264 0.33143016992944363
15
5 randomly positioned water molecules in a 5 * 5 * 5 box. No. 282.
O 2.3012968045265336 0.2982631642408212 3.3765454925514984
H 2.8948858897724317 0.5998662807570936 2.672366846385734
H 2.7237429155449657 0.42826575955117974 4.2226073480975765
O 2.911429368362533 3.7323505149443337 3.729147228249566
H 2.101570870149858 3.3820903864175067 4.067257241469268
H 3.5657193290425577 3.048989804248785 3.850339864021542
O 0.5146170711732828 2.388855676340387 3.1320244680262235
H 0.7364372325083884 3.1369259426893654 2.7244262545894555
H 0.5676574312047399 2.589803317686183 4.089761295757393
O 4.175863193005017 4.42053459142504 1.1913135580287375
H 4.851176954270119 4.723049389855335 0.5661153423677632
H 4.428709420497827 3.532276815647592 1.4347846837519227
O 1.0802693722306627 2.7739038509832916 0.5895970937743622
H 0.8063865285551297 2.072067235005607 1.177118076791216
H 1.123551636227993 3.5042940282527986 1.2376483855537428
15
5 randomly positioned water molecules in a 5 * 5 * 5 box. No. 283.
O 0.981374734105061 3.0510717120050335 1.679747035036685
H 0.6046714452887232 2.2397597791323287 1.466523771295735
H 1.7846457220578138 2.7914030582961717 2.1272472848806085
O 2.5448240131252153 1.8518882256617468 3.4807613938356203
H 3.0800710134485043 1.5893486043642668 4.236082945191887
H 1.7736611135809417 1.366815995701172 3.6653873098402245
O 2.1299155136607864 0.6013935451834179 2.306490086641037
H 2.72448023654738 0.37467657580610847 1.568612223309856
H 2.0820432428605407 1.5261785090800135 2.278635565157351
O 4.123428258504839 1.6845282995080169 1.3321524087956849
H 3.9349800988117902 1.1650155345061814 0.5117288396647228
H 4.131845075803547 1.0903035302723225 2.0713177550419606
O 3.8654765957755566 3.9476617150261166 3.616176983158348
H 4.780429403919058 3.8968942101777952 3.5227478597178257
H 3.5039426468934987 3.2607092496708905 3.094121892980508
15
5 randomly positioned water molecules in a 5 * 5 * 5 box. No. 284.
O 2.1422955478551704 1.6884929854738573 1.5454577303888961
H 2.6927971702672373 2.2574836302299044 1.9794594371137404
H 2.588834199229252 0.8702796433055049 1.6125474454501798
O 1.23298285069677 4.152382071560986 2.3581837009295947
H 0.9970778238135363 4.072188643912224 3.310239977862975
H 1.5337192980760828 3.2556247095523343 2.130049263732663
O 4.1628506981442905 3.983310101657877 3.774655506316902
H 3.928427679813412 4.487300024564312 4.535425848214133
H 3.3820237263313917 3.5555632955300336 3.5371427944324307
O 4.002923082996166 1.5250868054249178 3.6620333645752563
H 3.23861489667076 1.2176109753692268 4.214981362619763
H 4.106649248299736 0.8271836997492735 2.9757929370063954
O 3.8403038591949312 3.8267513503169766 0.5036610315112311
H 4.061505698127387 3.7701203416780786 1.4408136559792766
H 4.665638057159884 3.774164693489127 0.038670857736204045
15
5 randomly positioned water molecules in a 5 * 5 * 5 box. No. 285.
O 4.365586300930346 2.3727898821066713 1.3005976324361095
H 4.198306007571891 1.4173736382420317 1.156191315089083
H 4.619981447807472 2.3914707605937946 2.211360772022296
O 4.26567040900716 4.0706989474236055 4.573691756278303
H 4.989034087043109 3.4902286987346205 4.325817378858789
H 3.701722061614629 3.9291451038705887 3.868154769859588
O 0.9340164620200847 3.0650027039726435 2.697307727531201
H 1.4704581940829247 2.903197321956827 3.4912707456020664
H 1.535228775446931 2.9084088170163196 1.9341928832674582
O 1.6153190788733123 1.640579910286667 0.40126870841016904
H 2.1296588984064977 2.4038143903071 0.5530171426387711
H 0.951757945959607 1.7480762018887477 1.070670544726534
O 0.735051020480178 0.6328077456075359 3.5340259088188937
H 0.6932433204492865 1.515945052381337 3.8710893166498757
H 1.440939590026698 0.6197073787712433 2.9062310289808604
15
5 randomly positioned water molecules in a 5 * 5 * 5 box. No. 286.
O 2.3387935128619746 1.9249910971352264 1.7307782938260101
H 1.7946335027664373 2.143152834160537 0.9464863210188678
H 1.8005393024885419 2.0721201738189636 2.466037970572686
O 2.7756679942530518 0.4301934094048321 3.014114555836497
H 2.712468231320096 1.214969253200277 3.5310080973171627
H 3.666974941903746 0.23624315387270145 3.1588606293281694
O 4.460509308461641 4.20906867182062 0.8266919362268599
H 3.765754365050771 4.185545328669738 0.12979804569755582
H 3.9901096661357975 4.077163773305435 1.5953958999392381
O 0.18447693795275777 0.4136776752733995 0.7985038708253023
H 0.3312630530040864 0.8901186810781939 1.595760897029399
H 0.13665204380112086 1.0265701973774966 0.05580437993789378
O 0.7983689252868453 2.973508021568603 0.1272804558913876
H 0.17680360899984215 2.570534989045263 0.7161270773504108
H 1.469826364024104 3.2972032581474426 0.6673191276639796
15
5 randomly positioned water molecules in a 5 * 5 * 5 box. No. 287.
O 1.3180062131004737 3.9969349174329865 2.7400864924159087
H 1.5962149565577373 3.3211168697393676 3.4369877368900923
H 1.1630223577770507 3.378187562250285 1.916904788130185
O 1.5610124165919492 1.7714356966885685 2.906796800595477
H 1.535562669985918 1.7110589124026656 3.902478178363889
H 2.4170914905336573 2.2417370494365905 2.6812745059192107
O 3.8673535988798564 0.27905394532520056 2.919427446851766
H 4.160137118748479 1.0385375043863685 3.427090662752029
H 3.726150275054763 0.5690471967300534 2.0105242746837653
O 1.076618679186775 1.5398198737812874 0.7656847063342165
H 0.8295192511314309 0.6826814479081473 0.678906537390358
H 1.412282284082491 1.5940182743659104 1.6772152653948247
O 3.8732500517121387 4.774110141914941 1.1001749800281786
H 4.213673450080532 4.708350019053764 2.0166977936655335
H 3.4806947732342746 3.9210866965249274 0.9813787702807337
15
5 randomly positioned water molecules in a 5 * 5 * 5 box. No. 288.
O 2.1063382241715707 4.2350993553111 0.7825830144225149
H 1.9341536874858218 3.3961190703003448 0.34582392448729526
H 2.4014124041509604 4.01460481330515 1.6928493316669295
O 2.7815798375227434 3.9282327319622814 3.2912234682502572
H 3.4793860357493216 3.7411054808716107 3.872950315925482
H 2.0799412820827756 3.910520152504678 3.878354050989543
O 2.748029128037987 0.7143740946310856 3.565740048966065
H 3.072238947589778 0.20817201205754854 4.330313516241805
H 1.9380468991958981 1.1112279560705958 3.9360932038972263
O 1.4384974094917573 0.9065709353286949 1.403268382840025
H 1.1343369257785343 0.08401279628529112 1.819653620781354
H 2.340927717990464 0.6162201541525505 1.021862101878104
O 3.8979454857133895 1.392259652805632 0.4938792313727658
H 4.507650175358323 1.8888068282726795 1.054314936539215
H 4.079839832541785 0.4967450809668609 0.7436982237006405
15
5 randomly positioned water molecules in a 5 * 5 * 5 box. No. 289.
O 2.9831550342503492 1.4467180044813865 0.7795489315159149
H 3.145363410524731 2.400977937843897 0.9240621728418406
H 3.7279909928795023 1.0597482895178256 1.2012202517674275
O 2.604660298438169 3.6147747560053607 3.0606953264300247
H 2.84441039639759 4.216821341093749 3.7784834411060064
H 2.769819543649253 4.183452717775097 2.2857999098166717
O 4.634727697067742 3.9453065718644336 1.9341765965989732
H 4.332746934110059 3.357883591042098 2.6592215249470628
H 4.305730621822124 3.5042965227965017 1.1282425787201205
O 4.33261188433406 2.14657975378701 4.049795366712827
H 4.294212409268 1.3160689601053164 4.47614554689607
H 4.4693174628438594 2.789673144142909 4.73028267250838
O 0.7292745767825376 0.6542228273249778 4.516475143840013
H 0.5893466731624127 0.8348377635756308 3.5475265173542763
H 0.6475051852452955 1.5397863255672852 4.85862546373659
15
5 randomly positioned water molecules in a 5 * 5 * 5 box. No. 290.
O 1.7471272250981689 3.827569370747359 1.073872367564503
H 1.8722677966195889 3.925231704832177 0.1861829010649848
H 2.474681633554976 4.30477414778878 1.4571355539132373
O 0.4972583249419926 0.1668497909487726 1.0291903140166454
H 0.11441943972924795 0.5339238972766576 1.8485173114927531
H 0.009349262575406414 0.6539363448255533 0.29813200966187514
O 4.442619251871472 1.0100567595929606 4.069127135832145
H 3.802067118430548 1.2517073890517838 4.767714571839077
H 4.062458451805224 1.1752921812441701 3.19429411429506
O 0.4346165284729919 2.7067602583112915 3.9770747525314167
H 1.3729871937338984 2.4812403542608044 3.981805686056936
H 0.05907137029137138 2.012443687016652 3.409839734130428
O 4.150035584105997 1.8006614751425698 1.6924460521234563
H 3.6438650396534866 1.0831011871292076 1.8732800001172
H 3.9201334959802927 2.01675162421361 0.7285382184115582
15
5 randomly positioned water molecules in a 5 * 5 * 5 box. No. 291.
O 3.080461272930407 1.856834410877111 1.665240835546426
H 2.3447471518766916 1.3462425862297462 1.389950369330883
H 3.0801650740707185 1.6449065591313592 2.5846859323061895
O 0.5044198441761805 3.7142215012856066 4.064214960461115
H 0.32840373252792 3.4536407870011345 3.133423578884946
H 0.09973051154227364 2.928727815629051 4.543875350949347
O 1.277304720741822 1.2773318119894217 4.066543073199835
H 0.3872202441440482 0.970524796131421 4.243391730438327
H 1.4844259552226058 1.050621224997211 3.100389325224519
O 0.5536688689859998 4.263053738346417 1.0880807181427
H 1.1908312521856121 3.607486460538847 1.380223824206538
H 0.10126544216340111 3.8536313458201326 0.31475750350071396
O 2.944056620496208 3.3284479856293436 4.165902884585958
H 2.885295561080625 3.994263590587888 4.919295891654271
H 2.9342410173151494 2.523434178475703 4.643352922145629
15
5 randomly positioned water molecules in a 5 * 5 * 5 box. No. 292.
O 1.0099522917039345 3.7151222613743204 1.746580224958807
H 1.5096558909603643 3.036578504748343 2.1890307739590416
H 0.09085929609080179 3.3261808495203216 1.4924726989701618
O 2.6232207735905373 1.957346184610883 2.7790710360950994
H 1.806808711649108 1.4077767582526808 2.97517497732622
H 3.378898582707943 1.3599791243122927 3.108021850117068
O 2.363565965640375 4.512206174421395 4.028750861423265
H 2.1815039626341988 4.95362543726211 4.871172932249665
H 1.6235610172196728 3.9606709793025523 3.918706436648259
O 2.5034358957233867 1.6275621525577528 0.9199787169417328
H 1.8413466068372335 1.7132345837074299 0.25892940304837075
H 2.9745037070198426 2.484220514952425 0.9458870694887849
O 4.091981089536255 4.448603400646015 4.452543356270589
H 3.603569162947563 4.53643156537394 3.671001650219319
H 4.5058587533215775 3.543728448387112 4.419908922706735
15
5 randomly positioned water molecules in a 5 * 5 * 5 box. No. 293.
O 3.853026759377718 3.4485905303014226 2.56095875156138
H 4.049471164152944 3.528814276437529 3.4955815868598936
H 4.63239204465071 3.7530712105448214 2.1154679370778107
O 2.026407221517878 1.768502935644804 0.5124898175104259
H 2.2020418507592985 1.9431750911635217 1.3945511627053129
H 2.005738057032786 2.654001121235549 0.12014998009779465
O 1.773437023165338 0.4538808063026373 3.6487831477462644
H 2.1438699910546375 0.8666288195743878 2.8404307085564744
H 2.117837101403883 0.9297988169049947 4.423773003175168
O 1.1076709793285933 4.428860687555599 1.8004496626090238
H 1.2452069302351894 3.874892902630552 1.0504251679819407
H 1.291853550916459 3.877332750244263 2.5359221991888408
O 3.0507287077206198 0.12183929745422484 1.0803279407979716
H 2.9754341753928846 0.4388051164149801 0.12695228825736504
H 2.2153261509379245 0.3759440827936908 1.4879749844456578
15
5 randomly positioned water molecules in a 5 * 5 * 5 box. No. 294.
O 0.540632525079926 0.44183598023550597 0.24900460481828035
H 0.7567046516436337 1.3561834291214994 0.048513862164948574
H 1.4131388213823985 0.11957420890501458 0.6537966999566254
O 2.1911175407821397 0.9173726813201288 1.7734442457518567
H 1.4235028989662533 0.4491540042527047 2.2053180353170063
H 2.904430593112507 0.7233102615757923 2.385702231902213
O 2.543780189396625 2.454274790848242 1.2142608217458106
H 2.3047592426377634 2.2852375024742666 0.3495438218035297
H 1.6734133440818777 2.7589574696204897 1.6738126116884642
O 4.7038610362404345 3.2540434610509457 2.9153843602766614
H 4.292616987904259 3.819858160410709 2.2446099427226542
H 4.168006894508849 2.5051367009302554 2.8895528360690594
O 0.6141515564712641 2.1287355933044543 3.330620500709328
H 0.2952746737439217 2.6568946931384376 4.1075431119775105
H 0.4716776943278076 2.6249581895929865 2.5363921968801613
15
5 randomly positioned water molecules in a 5 * 5 * 5 box. No. 295.
O 3.2600494653429313 0.5885416372465513 1.9733652726843809
H 3.4254733198835225 1.0945337995585187 2.74769800616179
H 3.4474919692601103 1.0927117100879054 1.2238342995619114
O 4.065984690553431 4.499248066885626 3.3303709609044723
H 4.503867111600777 4.184019528188574 4.117830613923072
H 4.665303229429978 4.2789452741360545 2.6508476624344857
O 0.20289221316156125 2.3075854369859776 2.2787924963250603
H 1.0834195202458732 2.399847955149552 1.952008305548807
H 0.012601900385174225 1.3920592895658808 2.3862701516329787
O 0.8870456311294911 1.3903231625961265 0.6817530920189724
H 1.234794786365905 2.1876261907688863 0.21799203974816517
H 1.5319624394964297 1.2314057888174574 1.415294459989279
O 1.8657752565761365 1.9314419947473738 4.433677002484821
H 1.1626958041515647 2.551360594188253 4.216995289175022
H 2.5015505647344534 2.4477994811454895 4.9517234554773975
15
5 randomly positioned water molecules in a 5 * 5 * 5 box. No. 296.
O 3.828770711300592 1.0338556406288717 3.859146915947451
H 3.146012462633414 1.6478458237915397 4.106157822389961
H 3.369210906622785 0.22674375668902091 3.5875221360131246
O 1.0491358487678433 0.9588442737068587 4.167236049732278
H 0.6191656273458235 0.696954541323153 4.904608718332595
H 0.5481044002911144 0.5781107709941754 3.455418481281046
O 0.18914882112301967 4.1129280395081045 3.7601967914615213
H 0.7633270528370377 4.572207365107779 3.087262405091054
H 0.6854876311796017 3.396309157619852 4.198262302141532
O 2.216333220929228 3.296061631834764 0.8815701014873567
H 1.6978823868044097 2.512888696777214 1.061786066113247
H 2.818866192784119 3.039800577980418 0.1840705799935185
O 3.707762924169438 0.9381865735741496 0.7607848942390599
H 4.083868996247706 1.7696138491663482 0.6319109825964488
H 3.1126910741227083 1.1008135093227964 1.483919054948986
15
5 randomly positioned water molecules in a 5 * 5 * 5 box. No. 297.
O 0.2919569516161763 3.310182936584468 1.5795934658291244
H 0.296532707821091 3.7555932501907354 2.4100655228938526
H 0.26260637039324536 4.04717587012275 0.9072474568962263
O 3.6267627646132277 1.7972237279324788 2.046738931454078
H 3.906414599319631 2.302678425799078 1.3082437944856056
H 3.993022176717047 2.254171232696314 2.842585307756687
O 1.0238926373003765 1.6483384287992953 0.9331955759530769
H 1.30592002863269 1.1471544995103629 1.628625344744095
H 1.7443135352229482 2.1120674607097354 0.587602094255822
O 1.711163474583945 1.1795436286367118 4.946430227668311
H 1.9273895423793286 0.23494881440348625 4.758529666261048
H 1.7239561647442767 1.6869866852370938 4.165162471315707
O 2.1684021368576456 4.50832579163786 1.617122752789737
H 2.753425447104797 4.655414041856412 2.325924941203465
H 2.347785928224466 3.6507155024872207 1.2955417727416345
15
5 randomly positioned water molecules in a 5 * 5 * 5 box. No. 298.
O 0.7161750427326019 3.6103457600541007 2.521040942624894
H 1.1575763371469088 2.7925685015928785 2.5327265139589805
H 0.19296543466500338 3.6216773745453033 3.333572999227969
O 3.625204646811655 1.1663317214149376 2.1342061803403256
H 4.215628687356705 1.0556412516303288 2.886948166305574
H 3.658621439765703 0.22934448047722444 1.7778756272056835
O 0.5085343034032375 1.5896941769063921 1.2440680987709634
H 0.23380675437411003 1.941735582145525 2.082318178638323
H 1.2348270240191355 1.0693493763054085 1.380959158708944
O 1.8802654422618432 1.785943313592266 3.6146709106396995
H 2.0612537527073167 1.108253376240299 3.0058318979925964
H 2.532459719376977 1.6776531083988973 4.278944174860674
O 3.4474107365861966 4.294957244455675 1.6602070723402589
H 3.5261379831272928 3.443860543217945 1.957396086319053
H 2.523701711133289 4.436052299441089 1.5608638959262122
15
5 randomly positioned water molecules in a 5 * 5 * 5 box. No. 299.
O 2.195706233863574 2.628000985148844 3.1256593264679244
H 1.3603965689935285 2.149416541698851 3.1706053221249584
H 2.3709731646503074 2.799745846558986 4.0740707529664055
O 4.32865413940027 1.7924537071841047 3.902899854177037
H 3.6844668357428065 1.631396964982049 3.1816842234399427
H 3.796977033757476 1.5811498886756998 4.722477201784159
O 4.165968851915036 2.19216036826212 1.3301388533597636
H 4.555929595998963 2.5205128473038685 2.140744020594013
H 4.61944215811996 2.596791693185316 0.5874518687702427
O 1.2652470917746428 1.5789336282716804 0.6999851761892928
H 1.5059069205704125 0.9801961885457955 1.3963569680575187
H 1.9199998598240389 1.5007810733454647 0.018160078147301584
O 3.1527140102037543 4.044646982746103 1.2899292466041627
H 3.6800812422381313 3.7752550727151326 1.972245662539356
H 2.7120649393277745 3.266121302848349 1.0065139746170382
15
5 randomly positioned water molecules in a 5 * 5 * 5 box. No. 300.
O 3.5850459712109144 1.8112302428042 3.745147443550745
H 4.463871931547663 1.5176243224545762 4.134615855408896
H 2.9077110315675094 1.2072326185628732 4.190178669234917
O 1.6317362653658156 0.5761630956589925 1.7118745258136365
H 2.5544731626806234 0.20261292942706832 1.6318625911616613
H 1.5578747822863555 0.8298787529377853 2.628769928365411
O 3.1698735198431995 2.7876083025025835 0.6123812110031351
H 3.459505025014206 3.3979185183229657 0.00593590081031059
H 3.6217056981238014 3.046980623549827 1.4101135592746186
O 0.5633593797083586 2.8873262716560384 1.4159799842552485
H 0.9938393071982212 2.8422679382666454 2.300819858448058
H 1.1267375459835924 2.681979135651149 0.7500708459662351
O 3.1479659767256423 3.6706464115707798 3.032055566077045
H 2.3860850398922064 3.626469291086022 2.4604269386446678
H 2.7967982278801125 3.4479464565543934 3.9372116094477514
15
5 randomly positioned water molecules in a 5 * 5 * 5 box. No. 301.
O 3.0786676785000093 3.6210738532410565 2.8922243225386683
H 2.853722543678907 4.496041594278816 2.4293325567444066
H 3.690609656638029 3.863632089690436 3.523727723938057
O 1.648066982398989 2.229238391054751 3.88688035441769
H 1.0981806646514563 3.0101618031030823 3.6649082236248
H 1.176596658236294 1.9109639341148728 4.685074275053347
O 4.194284094326167 1.0092875977290816 2.5845127699787285
H 4.793622322144455 0.9204610786282235 3.2671483021478203
H 4.67194982609902 0.9740877932587833 1.7610644657677401
O 2.979389750704689 2.326391853581667 1.654392432428346
H 3.1016932502153467 1.7784496594226185 0.8922815653719576
H 2.1058299085215535 2.6232861652261557 1.554693775725478
O 1.3677334056663593 3.8632611075357204 2.374830843563693
H 1.651925430049547 4.2203009965092635 1.5159422117826078
H 0.4203581605774117 3.845959816338402 2.3462322915032106
15
5 randomly positioned water molecules in a 5 * 5 * 5 box. No. 302.
O 2.8797393088383623 3.256867428722199 0.7347141227391191
H 2.887496858486278 4.196668667428348 0.4419789720224676
H 2.0325759245800348 3.0561222244138886 1.1305716541370827
O 0.25758978835803026 3.945350990169076 0.5393492253927235
H 0.9323872493445458 3.25588843670046 0.5250646090305693
H 0.3467115689704078 4.434964287661477 1.3205061290903668
O 3.5727743553957882 0.5895892260760988 3.9156686148439186
H 4.019244803039397 0.03751712186110878 4.528969976247256
H 3.5798345647981864 0.08044187215324705 3.14413118002071
O 0.6217299139872179 1.5944057539439611 4.122952267295034
H 0.5188793557184731 0.9033816677720613 3.477304130438284
H 0.11998801362089662 1.3447626363077245 4.86648281024122
O 0.5769550643138727 0.9238933388724929 0.7109668108623957
H 0.6836306472430212 0.8108515673512144 1.5975612339292278
H 0.531177662527717 1.847543513308038 0.4950033557065413
15
5 randomly positioned water molecules in a 5 * 5 * 5 box. No. 303.
O 3.9681239537525186 3.6977463442742957 3.034755315108168
H 3.562314113235708 4.410361757679435 3.4816829108342047
H 3.2636203863383337 3.403055328858944 2.380843252830406
O 3.510478172081892 1.3853388696766085 4.157458756014619
H 2.8610813318197623 2.024417586866286 3.8788620526334583
H 4.2537403449784295 1.39265284452244 3.5449133070248964
O 3.078372553355411 2.5389313423843687 1.1389927392229393
H 3.3807540489531034 1.7496144044090585 0.5781296010323133
H 2.146358523716797 2.459264518583895 1.0309627141290731
O 1.4750962244928796 4.283034894360708 0.5039799412205931
H 1.6561478034664188 4.836987148654386 1.2443797465930366
H 0.69793810161571 4.630889365530657 0.08321738424154013
O 1.3433474503399256 1.4068343564235386 2.930536978952933
H 0.8476014135387455 0.6814588941078237 2.5828279133210583
H 2.090574613488477 1.04961186403969 3.409434864861976
15
5 randomly positioned water molecules in a 5 * 5 * 5 box. No. 304.
O 4.056603471905459 1.0727498419974413 2.5444437336952297
H 3.970477448663843 1.4715533242199557 3.3820403014735607
H 3.6772125456351823 0.2053157452831671 2.6581392745173087
O 2.3881667941225695 0.7619726009337036 1.9477660008857227
H 1.9209501060302472 0.02878574779335641 1.5176505863947432
H 2.5007075109247765 1.481317644949482 1.2810926923527557
O 0.743968918776512 3.697511338261034 0.5115182728430012
H 1.68757106179856 3.6121008114630997 0.36109713000080756
H 0.5465966095341345 3.440316362525412 1.400095832462725
O 4.087383207875605 4.240323721087302 3.7527150553548334
H 3.887173940140745 3.3620453016574734 3.84315717899102
H 3.8303659261856415 4.451156388180902 2.759790960238074
O 4.1535136660695455 3.4917339055942715 1.6157603322528264
H 3.213957924461842 3.564302744182705 1.3360047236852646
H 4.550160847933981 2.908217441343648 0.9924474831029303
15
5 randomly positioned water molecules in a 5 * 5 * 5 box. No. 305.
O 0.8182234131079985 1.5652583713018675 3.497729489616053
H 1.1435396394540565 0.8318886696207215 3.9224915359515786
H 0.37454434222638466 1.2060368059425683 2.701363113697769
O 3.7369792006325087 2.476161703361677 3.5921169482551245
H 3.763304138176041 2.7631590906633026 2.6980250843628135
H 4.566346540200598 2.757152607054339 4.046870637430486
O 2.963344644057926 1.8950117730807876 0.6912712747798533
H 3.197848231184929 2.5111833278289506 1.3121362798010752
H 1.9774798807636844 1.8650914164956687 0.7681951878905404
O 4.687989692474417 3.8507654054135076 1.9196438487089744
H 4.753511236564399 3.6256396202533114 2.901250495363956
H 4.622404351214057 3.037001846535838 1.450391118415014
O 2.049262707389465 4.138455961403683 3.828374983535463
H 1.2146441566246582 4.4646532502147585 4.190745481065743
H 1.7035770260924836 3.3003979491426696 3.4935814551082385
15
5 randomly positioned water molecules in a 5 * 5 * 5 box. No. 306.
O 0.39201011832969146 3.74364157795294 0.741228547050678
H 0.7714825106593692 4.289528779623481 0.03970991782275923
H 0.901027972229035 4.012034104665461 1.5269545492559846
O 1.5138792264646173 4.874528206226741 3.78558658253499
H 1.7426480547987608 4.873306637221567 4.742910444226637
H 1.3807291379437867 3.961185237128438 3.486156313769262
O 1.1025117696545967 0.9411342277577256 2.3795474199683806
H 1.6905715885009498 1.0701278186342835 1.6512539215948854
H 1.617450033395177 0.9387939293461871 3.114594034296594
O 0.1186060870566763 1.4780434199073627 0.7214767373546976
H 0.21026274803877343 1.9510015628445796 1.5449637230994844
H 0.34133264140425 2.057011760414652 0.03885262990972449
O 3.5028300121896305 1.4801303233631835 3.9587862691606297
H 2.609262754590267 1.807623118136163 3.9510923599405094
H 3.4498164057930802 0.5389888711512079 4.039712809026176
15
5 randomly positioned water molecules in a 5 * 5 * 5 box. No. 307.
O 0.8317190489920334 3.8962815983032417 2.2807628555123043
H 0.40371808197101383 3.537927689812649 3.076241098134858
H 0.39424717974910883 3.527874203620958 1.481515753028761
O 3.4644122567920768 4.584504390599744 2.928438526190968
H 2.7845215259598954 4.647416778460301 2.2682563736556274
H 2.9493406599397796 4.333150971624358 3.7400878802099524
O 3.8395471393254987 2.6620935915380355 2.2407649437409067
H 4.35733524391505 2.1330382187915715 1.544962674241832
H 3.779106866274411 1.9623681523002556 2.929398943714548
O 2.267356873437768 0.9090162530491658 0.8494941247356741
H 1.9992428242755182 0.04529096900271268 0.489653108020896
H 2.216623786916709 1.4518697779459182 0.09972551640966898
O 0.8545011972547689 1.7241095637057113 4.063436373448695
H 1.1562986635372596 1.4546918748614177 3.2026522181027315
H 0.06134498861107396 1.1522750275051288 4.277634524844214
15
5 randomly positioned water molecules in a 5 * 5 * 5 box. No. 308.
O 4.319734772337483 1.7736216687522244 1.7932210096910128
H 4.953837578184553 1.9989192792451544 2.3713402134755395
H 4.728729486996761 2.1467950053126983 0.9458666558382707
O 1.515386103491287 1.2022789926874544 4.98217112602377
H 0.6918304886132511 1.45509193656062 4.544128532513042
H 2.096281065359884 1.775557517013464 4.539364595062734
O 1.8493873355131607 3.7711157625207163 2.7919070046805543
H 1.8039932589270493 4.395310575481632 2.0742639050027045
H 1.8013452520669557 4.320272937157524 3.568727936782704
O 3.9701738406669627 0.09172706036126688 0.7525638530555223
H 3.340315324965175 0.13236232215034383 0.02778947682312527
H 3.474402312751637 0.25568348730836205 1.518324260746049
O 1.6025644307640008 2.7568142992219173 0.9001674046664759
H 1.922352738677299 2.9717280677468807 1.7668635844643932
H 1.7746879760174912 3.503248913246038 0.4006872803882666
15
5 randomly positioned water molecules in a 5 * 5 * 5 box. No. 309.
O 4.543837385250807 3.7036417058931814 4.313658077586389
H 4.12622055142647 4.504598012143298 4.19175401545525
H 4.707715513567799 3.331168832764658 3.504589444981284
O 2.4496167278201053 1.3061890996916736 0.9566246725151933
H 2.5928901772446946 0.9825537276930416 0.07144931320728032
H 2.7949420346566067 0.6920414585623009 1.5187174260001535
O 1.1816472655179204 3.2056006383989932 2.052029838239373
H 1.1462434644293176 2.750749838693771 1.191758162713364
H 2.1231883554681343 3.4018961572000577 2.056290511806787
O 1.4293167069113748 0.7052492291922452 3.456179361208236
H 1.967484967959234 1.1648492281287177 2.782248284267461
H 2.123469948175922 0.22004241493812693 3.9310050286426215
O 4.833558840627758 2.8876713155691025 1.238784044533911
H 4.384670439928103 3.588499407898812 1.633899990309608
H 4.13324042952305 2.449848562594468 0.6926740277261529
15
5 randomly positioned water molecules in a 5 * 5 * 5 box. No. 310.
O 1.6435133723470252 4.096639214754199 4.930192183045373
H 0.7570775749536891 3.749698132419891 4.970689340109405
H 2.1628672681212553 3.3881422854197774 4.54690969178993
O 4.605972657776299 4.797623533881352 2.2469601024672436
H 4.534081912338442 4.454151482980392 3.176251848969248
H 3.6896203095049223 4.749714966641472 1.9597730942779594
O 0.8260926946586428 2.192573812438501 3.131614826143742
H 0.10573756064682416 2.248588700245257 3.68311307731161
H 1.2330349419418365 3.005108526724583 3.2527448519290334
O 3.658422302229749 1.6045916003283618 2.108201116938809
H 4.188263921018809 1.9342796629101044 2.79860744626855
H 3.9363774135302707 2.116315373202177 1.3327936715828559
O 0.9453326722481942 3.6860715299788334 1.3688097471309595
H 1.1560638095535947 4.373509395544057 1.9984928910697115
H 0.9159122313866161 4.0991366690158495 0.4673214279421356
15
5 randomly positioned water molecules in a 5 * 5 * 5 box. No. 311.
O 1.655347228365388 1.29108088721219 1.733545022240956
H 2.076507310910869 1.5881566905453015 0.9596886482777256
H 1.9635006225213485 1.8675919902982927 2.446488649407698
O 0.9217107240796335 1.7953730960217984 4.296859132209178
H 0.6372040875709618 1.1696247920899272 3.595446213315003
H 1.1521234708074823 2.584691732931339 3.8697942759720534
O 3.106897751639659 3.716131516942342 3.2440704799581903
H 3.0145499532564966 3.016956085332929 3.925614595412284
H 2.8099573950420305 3.3709439687843563 2.456341158596852
O 1.2837376785463213 3.843543773994238 2.233439873254173
H 0.6368380984432594 4.282163969515446 1.6932362032208934
H 1.1182515528855492 4.162967806539385 3.0247060503896375
O 3.539067848110524 4.37602388623599 0.8362452893348055
H 3.9258801982021962 3.523991090941913 0.76161759637367
H 2.7095154235917382 4.336613676682833 0.3333617679327179
15
5 randomly positioned water molecules in a 5 * 5 * 5 box. No. 312.
O 2.0469177657322666 4.888102409344506 1.6078034904751537
H 2.215517846307285 4.343989954457403 0.8189304929953866
H 2.4913177307435626 4.424177516813928 2.3319796926356764
O 3.8259964720457247 2.204746966585311 2.1587267306883335
H 3.99375614337616 2.819241353807101 1.4589515931003452
H 4.644337270498235 1.7546820842658897 2.3442378238301043
O 2.941710411867046 2.477676058833525 4.2837638491675
H 2.7225021959355136 2.4513684402276117 3.3404781844541054
H 2.1738286727611156 3.017320434582828 4.5485032769778595
O 1.9148470202634664 0.15172005719538584 2.8375787531377377
H 1.7893233368825716 0.8312956134644958 2.2364769090355505
H 2.1697680107226756 0.6889155522639675 3.5654686236284308
O 4.389561521089335 0.8733355378356306 4.037811871639938
H 4.856790077310937 1.6745648008487084 3.7003025479030605
H 4.100343113568626 0.4041451681627442 3.27952992960617
15
5 randomly positioned water molecules in a 5 * 5 * 5 box. No. 313.
O 2.3389063248650084 1.2278317727367898 2.1609898460840333
H 2.1014113819002898 1.098565663139597 1.2974876885204836
H 1.6258250805875596 1.6714885945831603 2.648010109597935
O 3.42597158585185 4.080591910313104 3.533218596053571
H 2.5676702756748364 4.036776003322048 3.957220435377509
H 3.8790402380776867 3.2634921379618396 3.7121561581323084
O 1.2816371585471165 4.912598321763734 1.6794637025269026
H 1.3999322518856223 4.454983370282304 0.85283851476279
H 1.430587350266829 4.326947631698535 2.396420078135356
O 4.644112004196174 1.4499397232383786 2.7078215602536804
H 3.963817847839456 1.7957066549042904 2.0966086692274253
H 4.564628136709356 2.060371654256423 3.4835410690150015
O 2.4933246807559275 1.4925039549509 3.91181952732289
H 2.475593252385893 1.3812067266005763 4.874000040897652
H 2.0888247846166914 2.2988135864138286 3.727518735056954
15
5 randomly positioned water molecules in a 5 * 5 * 5 box. No. 314.
O 1.3628130169550783 0.015609454079393847 2.3020274251500923
H 1.1233951271423077 0.013373276032447867 3.231981870846105
H 1.9642256567089624 0.7833144252642266 2.214698952061502
O 3.5456968470455976 2.028860794431237 3.3800029862946417
H 3.2608647443045418 2.8707351569096353 2.944822751978215
H 4.020169303617104 1.5356998843484564 2.711518242162379
O 3.5810386890824564 2.9918994347511014 0.9730972503068996
H 2.9497361733314738 2.471659760151878 0.511515797730428
H 3.9689702529031203 2.3586092861430603 1.5991819631834203
O 1.503742296870939 4.024327386995728 0.08703406027911142
H 0.8600959949460274 3.739286829790723 0.6699695020438413
H 1.9928866750910368 3.2526657698121677 0.026035784493088687
O 0.2165532353709393 3.459002124713722 3.278557135441684
H 0.8807131450520982 3.7951429217453843 2.691083005596965
H 0.6549026755904529 2.6994188395093732 3.7808949337659974
15
5 randomly positioned water molecules in a 5 * 5 * 5 box. No. 315.
O 0.6677677083257383 3.650755662170111 1.8678624586556536
H 0.22380760254834003 2.9470895705901823 1.4593347520076712
H 0.5816558233872915 4.352419900820191 1.2989844244891833
O 3.177182164380917 4.133166806838952 1.9319806599475982
H 3.6906690466387166 4.876138461683975 1.9181413671963476
H 3.4681788899662642 3.4789093204818866 1.3247610216936754
O 2.252139969170357 0.6213840321185721 2.522535717537013
H 1.9620655984321376 0.9354317182641974 1.7043770908572768
H 1.891862908263032 1.1440967530928208 3.2037672703440774
O 3.877876699676355 2.3414247104892794 2.42538481137405
H 3.518051702498112 3.0074516671203604 3.0129907168177033
H 3.297158660479667 2.2634359076537374 1.6664605004737532
O 4.2725778895939825 0.6973873985369178 2.1396253010592825
H 4.907703232933608 0.1993708578953599 2.6262600442232618
H 4.147969253431461 0.23475248111616437 1.319138360794211
15
5 randomly positioned water molecules in a 5 * 5 * 5 box. No. 316.
O 4.817368514181382 2.9546494793358358 0.9646850424242237
H 4.842806045029746 3.600224983831246 0.23481977195630932
H 3.907339967688677 2.9964060830182238 1.3155187115664002
O 2.456663889097306 1.6677502620481222 1.280094615144331
H 2.009056045547361 1.7266078323470628 0.4835741473655195
H 1.8025840793841335 1.2761694482590455 1.847099092356827
O 1.779886741939663 3.9313251424502353 1.7843822455538243
H 1.8568698448813343 4.067445909389266 0.8501000122646336
H 2.4084749430809835 4.568078530280598 2.2073785979721454
O 3.582934949265616 2.339595278604772 3.9781099839819096
H 4.062636938624959 2.7177721107842667 4.609662559539505
H 2.845044591473355 1.931621821128803 4.4825839651008
O 4.716958746991066 0.6800549427624281 3.4763982631540875
H 4.231631265327694 1.4356792680380361 3.1321709748731767
H 4.325393484389101 0.4743026342207257 4.357334558148659
15
5 randomly positioned water molecules in a 5 * 5 * 5 box. No. 317.
O 2.2239877609540586 3.2834006393759196 1.7346456142832545
H 2.245952108805367 2.4649144604895272 2.283532385985269
H 1.8758839736397661 3.954248430164095 2.351736520769337
O 4.489435871778383 1.2244566644529353 1.8449107918864267
H 4.1291896741522285 0.6021563473274063 1.1413010067042209
H 4.323210809192969 0.7661720907936216 2.702584306738135
O 2.122136891023478 4.06148032927703 4.058727980836385
H 1.6384829379198018 4.601922627349928 4.6590892557825345
H 2.8727908228580104 4.610586824204094 3.7790844914057242
O 1.7627090120887945 0.7379493486465877 0.8183757769010502
H 1.2493307167599514 1.1892283428733246 0.18063283738279723
H 1.1235741724049864 0.13654759121983306 1.2380343005808956
O 4.486326281600449 3.6238020639819353 2.1747431906092363
H 4.545100142550836 3.332502234721614 3.0824157184327716
H 3.55739633392484 3.4717409248507645 1.8829589861419915
15
5 randomly positioned water molecules in a 5 * 5 * 5 box. No. 318.
O 2.182379403366391 0.233286335599463 3.2880192473087066
H 3.1077923991039054 0.3250845133410486 3.0647295095528855
H 1.9142217556259975 0.8797201150033795 2.713027849710863
O 4.646265228697472 3.041968875648986 0.3399236476319051
H 4.668759091637816 2.247920275468843 0.8878832356595993
H 4.534826039488141 3.7320828514499524 1.0346306853267404
O 1.1543972972234355 4.14501517093243 4.158505743097366
H 0.4733401580164167 3.675855025301641 4.533786993253154
H 1.4127223180619553 3.6345284740826287 3.418262010893537
O 4.495393699374599 4.187846463944652 3.038994946873804
H 3.6377221954046126 4.393189908443257 2.565476357374938
H 4.25320560538205 4.313528005512954 3.955141449634076
O 2.1914822641218263 2.148747873983697 0.5152761893489488
H 1.9739805835585225 1.2693302475128108 0.6753966923077261
H 2.8680128069616533 2.3523218744743177 1.1573826941110386
15
5 randomly positioned water molecules in a 5 * 5 * 5 box. No. 319.
O 1.842119518256623 2.8830402273939457 3.061577842532015
H 2.138780840110083 2.4325187972213587 2.2774635785699067
H 2.3947976004610747 3.651329838967486 3.1178049475250478
O 3.9833224322585292 3.624500326596098 4.549224832250426
H 4.794408172110294 3.166740474505879 4.325965615796543
H 4.230834801268076 4.540332178496915 4.99745015389219
O 3.8348321059217625 3.7955856248715407 0.5561490140312952
H 4.719009320695293 3.866634813174988 0.11345696474381406
H 3.9725113856963654 3.219263933783595 1.2810337025949414
O 0.9070422622457042 1.207506164860438 2.0297686389590823
H 1.3894407445074182 1.3910762243229622 2.8494553594531613
H 1.4220721429079775 1.46316437144998 1.3012324631795054
O 3.962058361138941 0.6464832945698656 1.3393805108668904
H 3.5073388541044017 0.21385360035971457 0.5914725172306274
H 4.747380166673661 1.0002112277203565 0.9204069180790149
15
5 randomly positioned water molecules in a 5 * 5 * 5 box. No. 320.
O 0.47307079944554076 3.830591851439138 2.5353480802364796
H 1.0640797824299546 4.00822727469643 1.7846645328640809
H 0.1709534763553669 4.700259009299644 2.8489050834293255
O 1.7854264718036816 1.0453484730211433 3.1705499873671616
H 1.3045958933724227 1.767339603289661 2.7752868210583204
H 1.8571008761988885 1.372581727376384 4.039637693615905
O 1.3161473630174076 1.6382543855865384 0.6914293523592946
H 1.0638697723492736 0.7417768870525367 0.9154175189206837
H 0.5035156977789528 2.085731632298468 0.5887582070331048
O 3.8723340299132643 4.583879856542506 2.152299849799548
H 3.9452902416420526 4.394204901373133 1.2222523478344822
H 2.874978380040588 4.764333084594429 2.3763291533150355
O 2.8145096542714194 1.3194125537528012 1.1453282529875808
H 3.203007491178529 1.7358939047276039 0.34607459098405935
H 3.261174379427504 1.5828055137068815 1.9506987463413208
15
5 randomly positioned water molecules in a 5 * 5 * 5 box. No. 321.
O 3.8912668496763474 2.024147721372473 1.054530952353866
H 3.6109872976853383 2.9598173530577565 1.04892688761664
H 3.3320791453567327 1.7381826490918542 1.7896528388669917
O 1.231771851608433 3.370492215816113 1.6694999582422114
H 0.56911843355893 2.802799416184608 1.268784179406557
H 1.0194218925169156 3.4328647895640403 2.5665850106440438
O 3.803782996920013 0.8180452489399065 3.217668009987782
H 4.217347639602554 1.21014067215966 2.4315918585088445
H 4.54717244495019 0.7094581191230249 3.8197156184891212
O 4.502054291352366 3.5685275393460185 2.1363300543019346
H 4.988037049329617 2.93844085079503 1.6284495249412143
H 4.8226087554017845 4.43477288434773 1.7978016521930358
O 0.13639542830252815 0.609101696078761 1.8569524753109956
H 0.6533838235066214 0.48214373248273756 2.5976517914840107
H 0.2460204442889922 1.4703904652132254 1.6554903857631116
15
5 randomly positioned water molecules in a 5 * 5 * 5 box. No. 322.
O 0.6381554054444449 0.6567846366971025 2.704272090114265
H 0.4447706646199287 1.1179633743768433 3.5016777271200956
H 0.3535300322923546 1.1968024328713252 1.8860482441878554
O 4.871880536569605 2.7546635801107646 3.179758261765529
H 4.516219931063196 2.2590409843345434 3.9311514487507746
H 4.5873695898365705 2.207467502884618 2.38314179364677
O 1.1637708772309914 3.911950019967088 2.181148614885173
H 0.47326279481444655 3.5529869016723707 1.6289370706462265
H 1.996352993716516 3.472198063641368 1.8719427317717516
O 3.053128039324395 3.925985755386469 3.7983258325458995
H 3.3767444244442864 4.69026099306146 4.242635983307342
H 3.6883003320201055 3.3504084865831127 3.411971834600033
O 2.3385236494889368 0.904927205360993 1.0642246593079236
H 2.6609676816272945 0.40668727521952663 0.37240497067295875
H 3.088830717735133 0.9325203102124131 1.6456622954186841
15
5 randomly positioned water molecules in a 5 * 5 * 5 box. No. 323.
O 0.41757820985514005 1.9949636751474902 2.79643081352503
H 0.7951108069901007 1.2394176505440917 3.2404912678205573
H 1.0888459263878205 2.315536441453976 2.2059685277568155
O 0.8310688344831313 3.712940450752618 1.4881656320258418
H 1.7332929482373696 3.783168342464447 1.6935122822322943
H 0.33920164847867296 4.015600975267514 2.1911109368345016
O 3.4750198061660442 0.5223709827528433 1.5502985679046155
H 3.642165398939029 0.25908956509868303 2.5039882697450877
H 2.6788694047695905 1.0231739831582938 1.570057215095496
O 3.5891289879163946 4.143492422879587 2.1231016693554867
H 3.1362066416534713 4.482738165412438 2.8646000814032453
H 3.3012389279678533 3.2420718278208556 2.0081472108734313
O 1.0082352376158537 4.492120121089988 3.559354287359244
H 0.5094635147378863 3.753394510750685 3.61731039077605
H 1.8423842133646482 4.376778167818595 4.114941943808993
15
5 randomly positioned water molecules in a 5 * 5 * 5 box. No. 324.
O 4.422179430344091 4.63554731285035 3.3875357490047615
H 4.453783653291573 4.0546934359459295 2.655203690006862
H 4.480481222661919 4.063685015972101 4.1369334861161455
O 2.7501469540786276 0.077185728258794 2.8762965341479587
H 3.583084649362128 0.28254585902220525 3.372771864266374
H 2.9936775904547037 0.1503344699221675 1.9527913447000844
O 2.536261545282867 2.6016689842529637 2.149176414078658
H 2.2961834297550685 2.740027371154023 1.2850509952624385
H 2.1608720228408664 3.3509984665452763 2.6116672771219944
O 4.379863606080983 2.5540060436894976 3.5774477760402683
H 3.95073903430639 2.9558898062674195 4.357150476937923
H 4.684842386790271 1.7144923988314893 3.905075999752182
O 1.3479305216322857 3.901700432450348 0.22330793472545296
H 2.3174862997072876 3.985930749469884 0.17729765636459927
H 1.1641740822806887 3.4776233818856355 0.9779146144511258
15
5 randomly positioned water molecules in a 5 * 5 * 5 box. No. 325.
O 1.8176620129813392 0.9801807561877768 1.0504410636760104
H 1.1426228240872356 1.079273375853262 1.759765992207768
H 1.4033804451771619 1.4685797925751196 0.3499524976001789
O 1.6703677025511976 2.944395556976136 1.974352730099052
H 1.3547766785722013 3.6121105515732186 1.4026783627575352
H 2.295121094510309 3.386035339946811 2.572929976250813
O 4.09806708800825 3.8825637320341215 2.312428093993727
H 4.545877811019987 4.226919521000847 1.563681883810111
H 3.4732059754311297 3.3220203484552817 1.8684002462612144
O 2.6683357339289353 1.012076751841498 3.79998533575383
H 3.115632675544181 0.498524215942859 4.5254685215059345
H 3.1615106148313705 0.8374564430718189 3.0255289738472646
O 1.0490028927072614 1.196135913419229 3.7751807441631087
H 1.2578057704570433 1.728496441078333 4.570724061368024
H 1.3043539364327166 1.7634059960203659 3.0689599345820278
15
5 randomly positioned water molecules in a 5 * 5 * 5 box. No. 326.
O 3.8147993137856333 4.039770641946531 1.9393683933060375
H 4.3457858145924835 3.869137963984744 1.108819515154396
H 4.419030029438327 3.919817801992919 2.7040165435059853
O 1.2179690936578336 1.3209912969002873 1.58428339096292
H 1.4790698164083818 1.522610364417584 0.6807359243237168
H 1.6538972189174572 0.5560778927471528 1.779823529752977
O 2.9528181090531063 1.9617428417688065 1.2682489164801942
H 3.784729345661171 1.4406663373665516 1.1637517686960015
H 3.2915451103989524 2.827308478056315 1.4640283884083107
O 4.562013278862389 2.0753941058774754 3.5293813931204103
H 3.677204281936867 1.705073394237636 3.621693928396453
H 4.948186435245953 2.101402040668607 4.383037849439803
O 3.0712325103280067 3.590554910757842 4.304489008631207
H 3.6050595692536236 3.426464605794537 3.564765597776847
H 2.230561321419123 3.250588926612186 3.9596785129125527
15
5 randomly positioned water molecules in a 5 * 5 * 5 box. No. 327.
O 2.497986492502329 1.4029018549215007 3.8193373055740736
H 2.386725253553578 1.9687649053040683 4.631467627833127
H 3.4543937228033417 1.4314107284953985 3.544744916049982
O 2.882762425137215 3.7974753113026734 3.3554986034161702
H 2.7611626239990477 4.038208654287595 4.232400888158392
H 3.213250155615202 2.936913696467137 3.3559017486580065
O 1.08726038912627 3.7101961715262237 1.6360712951040064
H 0.9528490942839903 3.588984760087033 2.594624640361845
H 1.0309056233571534 4.640307974565916 1.4370763289026942
O 4.32781675927964 4.151060073749549 0.5954906199266258
H 4.885743769827963 4.660548489696024 0.005514031986847301
H 4.033855952896725 4.729741211353636 1.357752828470852
O 1.2769105113737371 2.1329222563509527 1.1606779446405495
H 1.9633917842791444 2.257333298755245 0.5305779094323264
H 1.675688687745038 1.7764359415486843 2.005160360360403
15
5 randomly positioned water molecules in a 5 * 5 * 5 box. No. 328.
O 0.43564529194261126 1.7911811647391096 1.3887869701509403
H 0.021138597602717746 1.7206561419965218 0.6221717512566973
H 0.49615054254614527 0.9364893648145983 1.8318152484835437
O 1.1179156597481998 2.4304869636968798 3.2767170801232703
H 0.8653243627921303 2.700165768431342 2.4028245205525116
H 2.0256264335523184 2.7083044308823427 3.3390942389908638
O 4.7460902574454185 0.4812040571524101 2.6860449610219614
H 4.4493317645445885 0.7713150665792484 1.795398080602748
H 4.0020576240082 0.2904152312178709 3.18734767829093
O 1.5205935871968297 4.088963936408919 0.48998904490890616
H 1.8599760997834247 4.88208422020884 0.9582067169782689
H 2.324734084081739 3.5843820470577805 0.30338137416712985
O 3.3813544829976316 3.2952205666614285 3.8741128267750744
H 2.761783292402405 4.059586232590316 3.7449868037781155
H 3.2508925161081295 2.763142699123396 3.1280248107928417
15
5 randomly positioned water molecules in a 5 * 5 * 5 box. No. 329.
O 2.64284007901171 3.355006552852357 2.1968623195803576
H 1.8822120612049358 3.855150413201881 2.123171409906086
H 2.8922681357902507 3.3214377973072335 1.2897118667758483
O 2.6725399530811718 0.1294230560909393 2.421882286118932
H 3.1517554849142826 0.7156743471527856 3.0854728479630404
H 3.078139440434383 0.31171861246595056 1.5945251691173152
O 4.3127238555624805 2.720211225887898 2.4101870977696254
H 4.582756163752602 2.2623568226757236 3.1544333783145158
H 4.856040488516286 2.4219793920254107 1.6942935144050277
O 4.760201156584979 4.497771343483998 2.930541049994658
H 4.582178608564613 4.105909243259663 3.7579676599300558
H 4.09121183185692 4.042654237101128 2.35003914258351
O 1.4716349866602463 4.3573434815084475 4.308221884468035
H 0.8385028091478218 3.988092339223416 4.941353206505558
H 1.5822650468283581 3.713344249935658 3.6252514874479953
15
5 randomly positioned water molecules in a 5 * 5 * 5 box. No. 330.
O 3.6661216566819665 0.9995408749786044 3.0435732920264935
H 4.053765506197561 0.7907682272571933 2.2286703382795605
H 2.915772085764073 0.4877825144579627 2.9915294970617925
O 2.8106324785427 4.13249104128517 1.963685353052469
H 2.8510383971081366 4.302268140623783 2.886461355328902
H 3.2967786608712566 4.849273735673494 1.4731004451108898
O 1.3412499332387302 3.590146998864243 3.8715283479356533
H 1.2815038133903547 3.449129261539074 4.757518765167264
H 0.4444748296002087 3.603016253069652 3.510771837649652
O 1.8846630841745466 1.5463217027237275 3.5455268705303
H 1.1934419984520874 1.7551347077690915 2.986672260107371
H 1.633588005582807 2.0620053800380727 4.30010845098948
O 4.386637332060945 2.7980975307134592 1.0390021241158498
H 4.449528895086922 3.6411951849997184 1.5312523448997348
H 4.023534555282028 3.0517986570515694 0.15684817279361973
15
5 randomly positioned water molecules in a 5 * 5 * 5 box. No. 331.
O 2.8060489576153076 2.70261712595319 3.5370827420142694
H 2.1568271669260346 2.535227058308474 4.245216841491769
H 2.366569216916674 2.66574617186313 2.6792616290054334
O 4.192595020771072 4.826038756527588 3.6957825138275164
H 4.251658355859304 4.184693444706799 4.367802186798771
H 4.072269360247012 4.290556198160111 2.880747007588571
O 0.545737350429078 4.494227171443825 3.8202861900819514
H 0.19515413361474865 4.701172622191782 4.67661957723183
H 0.035221885189960944 3.7660573933904478 3.5001185142621
O 2.044395241884801 0.79096618682994 0.8417383536099393
H 2.2919029179523016 1.357721454818872 1.5982184647527986
H 1.2327361861491277 1.2782929677726187 0.4751172509129241
O 0.30367284515759596 2.1996494102916313 2.8813262796431713
H 0.8157950241636193 1.8568002282865539 2.257618707845688
H 0.606305804234254 1.8888743749986143 3.772664784645137
15
5 randomly positioned water molecules in a 5 * 5 * 5 box. No. 332.
O 1.946008731725775 2.5227163739175538 0.6851259624012551
H 1.735800834109722 1.641251329851402 0.3856286986432272
H 2.7646828390978886 2.4448152529843514 1.172747632610453
O 1.4051269322026971 0.789355865861146 2.8918878473312866
H 0.9377682847492352 0.43727356474345763 3.65618347346513
H 0.7518036923849494 1.1580807774984672 2.2941381054290835
O 3.214217376606619 3.85488218009679 2.5038967363822575
H 3.940767277446997 4.347971921018732 3.040209090768558
H 2.459282442221358 3.8797405543476087 3.0469633196308137
O 4.038546287344496 0.0758932657195055 2.5679049928304227
H 4.416736982044229 0.767444506362438 1.8770885464646887
H 4.355808201023042 0.49168598046945516 3.3285486829892155
O 4.491471894747353 3.7643120439388493 0.8227807193422898
H 3.9964156632399073 4.093599258512326 1.5365105854729062
H 3.8422041429291482 3.8545509111397664 0.11532847071895325
15
5 randomly positioned water molecules in a 5 * 5 * 5 box. No. 333.
O 0.8818127421459782 2.928041487253745 3.7339586251072103
H 0.08598285191954658 2.3914870775871186 3.6446451338639054
H 0.47657710009887044 3.7516635243179506 3.8804053022369893
O 3.8858849179565618 2.869403740233701 3.9149148708379897
H 4.364588631220534 2.163228856922307 3.5832138365330404
H 3.107689975957163 2.8819333688968416 3.3785954288019084
O 4.830705148768354 0.19679680482549478 1.319429988876541
H 4.194577392492989 0.2626717537630081 0.6033582266444857
H 4.734299090138829 1.0563530275594293 1.7815884796296793
O 3.05613462861062 0.7932630202697816 3.1300316705955837
H 2.5037385856979895 1.4465065022690262 3.442137551256454
H 2.5201486754480587 0.3214819069169559 2.524581285707402
O 0.7827571503841774 1.9117883913739075 1.9582189098496783
H 1.331052917052145 1.3783151560541933 2.5746317251764825
H 1.093618687679752 1.6737035607794164 1.0564932343522389
15
5 randomly positioned water molecules in a 5 * 5 * 5 box. No. 334.
O 1.3476794203757065 2.846586829762284 3.6475482602508427
H 0.8163608777682337 2.9626823830165168 4.4087757529282
H 0.7240501270845581 2.820951745522548 3.006217854774161
O 1.3993497286107726 3.988603872375153 1.346375986517319
H 2.18029295883884 3.866465335138503 1.9253284268541875
H 1.7107126641526476 3.7982242890338984 0.4592183238702223
O 3.648148246851549 4.014756299958439 4.344015831499238
H 4.511753422755543 3.565571842332532 4.507754893115491
H 3.861944081825472 4.800042029052839 3.896765369083203
O 0.24836527016251997 0.5422739929689757 4.040083582380452
H 1.207677666474729 0.372271571129891 3.982925413025235
H 0.11546301067567011 1.2114076199250081 4.640499977347616
O 3.2013444249774228 2.724097027434862 3.474325728024661
H 3.992741230557891 2.195420797007194 3.358612638097216
H 2.459800071655579 2.1856655568872108 3.3857262409857354
15
5 randomly positioned water molecules in a 5 * 5 * 5 box. No. 335.
O 1.8339107836508184 4.904921091007599 3.3389544486904232
H 1.709071258671879 4.671584768143032 4.262281335338077
H 1.7301602428929979 4.012954309325174 2.8731249957245457
O 3.4997769388443736 1.2750308840532871 2.067238530194306
H 3.3878424080590333 0.35598812147474557 2.412054402695685
H 4.109085803622671 1.1732858692243406 1.3324676432199252
O 2.5674015235671317 0.6165254900864153 0.4083908304478584
H 3.1798771097829652 0.12831650546826395 0.8149706963414272
H 2.5813429083251846 1.349530626501084 0.9830088966542555
O 3.8902646949991837 0.9305700521915494 3.7437853558951204
H 4.515154148716696 0.4911909693777159 4.38847276259029
H 4.374420756658156 0.8276535169619181 2.993297434479442
O 0.9165097676319506 3.0624444660233245 1.4896398301758547
H 0.8357332248042505 2.708911104805308 0.5798837635230365
H 0.18674145038511514 2.688850262161007 1.960379643228285
15
5 randomly positioned water molecules in a 5 * 5 * 5 box. No. 336.
O 4.1761593450043435 2.250208767786611 1.9276621081983798
H 4.359431022632832 1.9214882525476118 1.0110362578674508
H 3.732557144536908 1.503790611409752 2.27879809393062
O 1.9356194303657541 1.6880574111133462 3.7111379090584817
H 1.684795139472948 2.0721507261684473 2.8887738296482524
H 2.6482520292651035 1.1429687481618187 3.5298488126894183
O 1.96081133498009 2.690882140619974 0.8256634290520343
H 1.523665864452465 2.3574943490468074 0.08390379735863496
H 1.4108121714556487 2.503227761457996 1.6453165629570945
O 0.6877815593061676 2.6489287041825937 4.858079639720792
H 1.0101279049081053 1.789196991108221 4.630921870899287
H 0.5331853374818831 3.0931802260919405 3.9831466892087746
O 1.6879886531669763 4.916683565040473 3.5297293130193093
H 1.8253029088508481 4.788251608175976 4.480575012413535
H 1.3786266558213798 4.061045654092055 3.261745014489461
15
5 randomly positioned water molecules in a 5 * 5 * 5 box. No. 337.
O 3.8498438809345537 1.8549472249560632 4.293490747321384
H 3.078851083942957 2.2138358348255798 4.78126225402755
H 3.499813082425833 1.1573958318807842 3.7852479115128186
O 1.3972087290457413 3.299922005953617 3.042946937916002
H 1.175134571227347 2.939582189857453 3.8625275773493333
H 0.5556368581834029 3.5728732383317974 2.6552374568193193
O 4.362139621657172 2.4576076309665202 1.400866598079794
H 4.663349525735278 1.6771158594436926 1.970686184037607
H 3.807107636314791 2.9961482469019707 2.0174569454478712
O 0.7214347227155599 1.803816018267093 1.7037091434395975
H 0.2648829187179934 2.2165183698698017 0.953716958323145
H 0.297061645439954 2.0820420588438897 2.4694662168254116
O 1.4278016842648973 1.0379884264737849 2.8178909128238354
H 1.3803388049021423 1.7610637203173307 3.334848311258741
H 1.61225509020577 0.3392953174044754 3.449909364856538
15
5 randomly positioned water molecules in a 5 * 5 * 5 box. No. 338.
O 0.6662103098872357 3.6225672384420466 2.8481659098392327
H 0.5818974584002994 3.2116357237893776 3.7042433641988834
H 0.38656196579790314 4.555697267698472 2.9919061888181577
O 1.8416174609962888 2.080717392402529 3.441953383395137
H 1.3901019095679858 2.0047465176281594 2.6517298119496777
H 1.1366094076182804 2.107139312992093 4.041697312606678
O 2.3214072559385746 4.033747322691773 0.456695044267712
H 2.516127739250194 3.6044405804585304 1.2632395962444964
H 2.6356083834231945 4.9292315425304025 0.474841803415998
O 4.044588919216584 3.494991549359267 3.3177833737703826
H 3.1032940002804494 3.559019771896197 3.3901983502985185
H 4.2270319581258935 2.5320774239304686 3.167101003666199
O 3.8295667928488273 0.758790380621453 2.111912371450892
H 4.183376245994526 0.34498624439931747 1.3726745787587529
H 4.267950458085662 0.3498195217535667 2.8659262220785306
15
5 randomly positioned water molecules in a 5 * 5 * 5 box. No. 339.
O 3.794222218810858 2.156940795877791 2.875466681737418
H 4.145739917529307 2.412809475636289 3.692693858237765
H 2.892415380064267 2.548147673383632 2.8514343674062985
O 0.23835957340788694 2.486541648252922 1.6585194371712453
H 0.7393712524507219 2.1663425242785688 0.9175553123284813
H 0.8103992805554326 2.3479926335954415 2.430931782174196
O 2.2395470780574733 1.6687250899159305 1.1021364751070868
H 2.6337043020503073 1.3826273766110004 0.2565759899798289
H 2.890727009186248 1.524251350582238 1.7495795756445665
O 2.2106187171540963 0.10618191184753656 4.056687103915034
H 1.8618348104871785 1.0511945298851768 4.031082431640383
H 2.6236872274000644 0.04256107890425642 3.257941779154949
O 0.17220615762360336 3.7930990814215364 2.8876197967319106
H 0.9094356919854458 3.4323996367447283 3.3737213986581787
H 0.3684327902655557 3.6524826981950866 1.9682519817407087
15
5 randomly positioned water molecules in a 5 * 5 * 5 box. No. 340.
O 2.549304161202326 1.0922906461380344 0.05783484145706119
H 3.216555687069583 1.573053051872401 0.5761696635189566
H 1.8199123682808551 1.65484887862554 0.03151345031547162
O 3.080700247550992 3.9753986317166525 4.574089184715988
H 2.6555169206111215 3.643072746337208 3.7605465381155536
H 4.047573363497957 4.019162220796124 4.501141606351198
O 4.384558998351631 1.38480353154167 3.807922280346298
H 4.732381213071778 0.7417228800752709 3.2193204697580002
H 4.350949085836614 0.9138999634324705 4.628276642136037
O 0.7525663664191229 1.61387270678881 3.51077604489415
H 1.0125099108479856 1.1668843601116918 4.354355670062378
H 0.056192082694175305 2.1971029968024283 3.8760180547746446
O 1.0080245845482443 3.7370811098157564 2.9141121731894293
H 0.8936815146641502 4.364928562632633 3.7066109160794314
H 1.1357884407644039 4.224393969387749 2.1375541711636585
15
5 randomly positioned water molecules in a 5 * 5 * 5 box. No. 341.
O 1.0004297571853527 0.1689084584796724 3.213859778673096
H 1.958455178423966 0.07281747616043116 2.9708168302690767
H 0.7523203691577853 1.0764876811873103 3.4019135356029273
O 2.9614820469541625 3.44501903694338 3.7965125494708825
H 2.4472594855397065 3.7521020171032036 4.561048667600586
H 3.4718640293388794 2.7633117686971875 4.236873261028592
O 0.4129150191004538 2.583053463731691 0.5401174960757171
H 0.07796165445382786 2.6805458439198726 1.4680925808150689
H 1.3641798136791907 2.801251632252061 0.6106715048483504
O 2.663355777628573 0.8435640251971138 0.7281057003584385
H 3.017566478414975 0.8451298479221319 1.6300671906236035
H 1.9837942350139184 1.51642641664824 0.7843666212605407
O 3.5345582328792533 4.9591987546076135 3.8175485422939897
H 3.0854202037978955 4.8741959330551285 4.572945087656663
H 2.9422270498072596 4.868575282638019 3.0312685996240454
15
5 randomly positioned water molecules in a 5 * 5 * 5 box. No. 342.
O 2.036092312984814 4.1325118636929785 1.7814247634854592
H 1.3623394453589839 3.800637968137559 2.357916631171579
H 2.369743429695335 3.3789437976508747 1.32082682654349
O 0.8797208167993437 0.8816088525175914 3.3520163401775234
H 0.20612990521565244 0.6265782816371681 2.704505264378411
H 1.0806491469937416 0.10616686065659886 3.869734252181878
O 4.3915160368567365 2.0883513846856596 4.285602521159738
H 4.535230527442614 2.9656765375015257 4.58778554682862
H 3.481996287778337 2.0045394389407454 4.299031011873764
O 4.303261374942698 4.4890547446718445 3.771659279259338
H 4.759763112238773 4.650696995635293 2.9896735312469658
H 4.807724958421777 4.998072424424668 4.429714400588592
O 0.3337691156690442 3.1964355302871383 0.44731503953953533
H 0.3044431147605949 2.514038461258984 1.1049629204779543
H 1.298780114465028 3.3513973014711214 0.36775540951887975
15
5 randomly positioned water molecules in a 5 * 5 * 5 box. No. 343.
O 1.6025837063313442 2.3915933105796916 2.2056845857019542
H 0.9750737896255144 1.9390402497222072 1.4905077189750502
H 1.0555206101156158 2.513099846273783 2.957026334200145
O 3.1843143083641587 3.3987683851941624 1.9148091338526978
H 3.310598019135119 4.242368166336459 2.3572093451050056
H 3.068944218773936 2.698841062936123 2.4987428987146947
O 3.125988142395259 1.1794914673453905 0.8797666816579508
H 3.628433177898838 1.680693953158833 0.2000817560089313
H 3.146420656405954 1.7092606888492914 1.6841879076493542
O 3.471252831022923 3.482479021146236 0.06364966999398813
H 3.3390156988196567 4.332698631432152 0.40372929038144806
H 3.16143393197037 2.869974552508909 0.7125691487367514
O 1.1955576201845952 0.7284290085597184 4.43440340430593
H 0.3724590350972552 0.4786027788217726 4.838166997242754
H 0.9600196211325706 1.5240967087208954 3.935548269548829
15
5 randomly positioned water molecules in a 5 * 5 * 5 box. No. 344.
O 3.4734540478157205 0.9261403959381598 1.720309744888147
H 4.343538648390551 0.6285423252158424 2.045860219211612
H 2.8732095261928836 0.34095208342927485 2.1845157615383535
O 4.19840137385793 3.250260496262867 0.6763430742127968
H 3.46651077112363 3.1032714894323803 0.09368864578823366
H 3.8885424737186485 3.8933511491353827 1.3363232419586195
O 2.1604720007979834 3.0518733650288987 3.9138309444009947
H 1.7620228213188378 3.2447651512495526 4.760332400866869
H 2.7725281253796257 3.7663715535527866 3.8457931769580735
O 4.6093455453999175 0.47479018759484404 4.21784706188675
H 4.108840857604504 0.7892204960624012 4.944835633259062
H 4.850061044931339 1.3163839723027366 3.7117272768371112
O 0.7726337993396326 4.300651003892361 1.5425003239273438
H 1.1443629231749037 4.385591376034975 2.388661197074624
H 1.469590365090887 4.458631418567489 0.9558231112289631
15
5 randomly positioned water molecules in a 5 * 5 * 5 box. No. 345.
O 3.111645480917165 3.9302385945492917 2.799817677627164
H 3.5293350091170126 4.565880458934383 2.2039254952940217
H 3.4920608754003797 4.063979244001933 3.7134708160146785
O 0.5140996542797205 4.597613002426982 1.5806851643343949
H 0.5817916199550327 3.886046361135892 0.8923134511316956
H 1.4202318433305328 4.882527641545456 1.8774784162101197
O 3.7101111022763527 1.2805834070268785 2.741273349239056
H 4.086340804119583 1.433356175837885 3.6076083444749356
H 4.536286554505712 1.286354776426912 2.2416380355868237
O 1.3692493816477824 0.04253849626990325 1.8957355875038933
H 1.824255946427836 0.7365483717769611 1.3892762933339067
H 1.838734680644544 0.0916250507513251 2.6595332926082067
O 2.6694531609085033 2.956822142118742 4.690235402117985
H 1.9804012967252407 3.569768854237147 4.477319139836817
H 2.3210104292934015 2.102052907147366 4.421928479446853
15
5 randomly positioned water molecules in a 5 * 5 * 5 box. No. 346.
O 0.8099018156767068 3.054347433787002 1.39576459775063
H 0.7156476928285218 3.709245485517796 2.063716838847986
H 0.5677936400049997 3.468846848005329 0.5977032395093816
O 3.3183481620497988 1.8963258180490845 1.8495359010158348
H 3.96255562426104 1.1469860165358112 1.7561711387278103
H 3.4265997826397347 2.184451735324687 2.7734597372663297
O 1.0807262257900767 4.677897984396475 3.8552314703220425
H 1.6027131614099313 4.353576352048641 3.129307067892816
H 1.5549827921024402 4.355431333456255 4.608870740573314
O 4.010893793882961 4.400432397189445 2.6951623378501366
H 3.903827272626932 3.643731889327859 3.2934079782760164
H 4.9747823980779655 4.557926984187332 2.609820722585896
O 1.5665676214806084 1.3379156762253368 1.286190608028324
H 2.2808182202684266 1.1709266220982022 0.7115363930543513
H 1.8680399897614648 1.010017164873458 2.1480459280948336
15
5 randomly positioned water molecules in a 5 * 5 * 5 box. No. 347.
O 4.369222326272844 3.8620307504874085 4.586466574168141
H 4.833392282500128 4.6607616722277685 4.930139125551236
H 3.4721701586703397 4.110262624466852 4.78564164716246
O 0.9770526006382263 4.503496655856432 2.5000802195409726
H 0.7729642296036894 4.453654887605701 1.542497884673271
H 1.3014495331977414 3.700086384952623 2.7101947191664952
O 1.231208652472685 2.4989469784698395 0.9089519947526786
H 1.9522271601186938 2.6071110601373757 0.18493863923566167
H 1.078879244536896 1.569955581303893 1.026749885246621
O 0.28884719875281295 1.8126981191107805 3.5502010038169223
H 0.31031846974007765 1.1815339664891145 2.7550258159963734
H 0.07516274775951601 1.2572891682339318 4.297739537933066
O 2.6158776062200055 1.8876388363227266 2.9210186139303396
H 2.628587107937684 1.0197859020610416 2.600775492642095
H 3.416187836453691 2.169527819622678 2.658716389291841
15
5 randomly positioned water molecules in a 5 * 5 * 5 box. No. 348.
O 3.439173714131466 3.3030688471027956 0.8149577263848434
H 3.289594680443253 3.3948214406837884 1.7405127816584285
H 3.810036798289279 4.108582695398734 0.6373256129767249
O 1.094805687088078 4.532565838448192 2.5395829678663686
H 0.6964194034387717 4.171220134855193 3.406651612467785
H 1.4434568140911126 3.7735464636438576 2.102728874414064
O 2.179710265956927 1.239375022014556 2.6060257418219313
H 1.5821945796237151 1.732836042053548 2.0226052741488854
H 2.0471411315715935 1.6897797326431274 3.4473326644869373
O 4.781983350648551 3.374771779788288 2.794870788373686
H 4.345750271947155 2.707850850331559 3.3733933509422362
H 4.647456893253892 4.299857074790493 3.1585017982540675
O 3.7155105284075436 1.4886277073539 0.4492310759959284
H 4.340068828738158 1.9554425242716753 0.9970755956718809
H 2.898358938468731 1.8526095057128216 0.7821750280970103
15
5 randomly positioned water molecules in a 5 * 5 * 5 box. No. 349.
O 1.9333634232061119 3.276904036147122 2.9621911364083946
H 2.369446303804108 3.274125768706527 2.0989924544082075
H 2.5836246635284934 3.7627060363963056 3.475412420800681
O 3.3169130593474 4.0466741315075625 0.2960978824210764
H 4.154893331148104 3.9410064313193764 0.7991766219309082
H 2.7471939791923585 3.299665320600491 0.6492257562861194
O 3.5323345988724797 0.7340536487712368 4.188372254404234
H 4.070734884749715 1.328623720836516 4.492952292111217
H 3.6403646872604165 0.7898312845061309 3.1950045024804488
O 1.2251106192549677 3.4419318755847668 0.9518050244007104
H 1.0061513098657697 4.311433420165087 1.2334539568741694
H 0.3867033310831671 3.04804830690827 0.8058907652208609
O 2.068906705109516 0.025639824037600456 3.188423781885892
H 1.905313593104721 0.8747703356095441 3.515910866687056
H 1.674924478295295 0.03771605673959527 2.343280106341905
15
5 randomly positioned water molecules in a 5 * 5 * 5 box. No. 350.
O 1.4858639028515797 2.5453940293710184 4.051470082111223
H 0.8333461248897034 2.111548080132306 4.536433177380553
H 1.0682942682015764 2.9121231913888366 3.2920439096208143
O 3.904329597794787 3.706032926372875 1.1273896432303916
H 4.3652154285998295 3.915324898915155 1.9275654691762747
H 4.430279486293929 3.995165725669253 0.41243975226034335
O 1.4241252201154653 2.3607730274861587 1.576064795882424
H 2.0612030848066927 2.0237456934756755 2.112288207686149
H 1.903563092136984 2.724107703077195 0.8176296633612327
O 4.099226091026227 2.6190224627299177 4.263421102770197
H 3.6847488274205498 3.4156206088683128 3.9779570654485488
H 4.727568700766535 2.3261564689193936 3.5796868903512555
O 3.2633114923092688 1.2360213060509446 3.697881118996651
H 2.43405172930066 1.3573080789460608 3.1481325391154726
H 2.9581496589069625 0.8627454511965921 4.574611436141127
15
5 randomly positioned water molecules in a 5 * 5 * 5 box. No. 351.
O 1.5749896175774236 3.5609695965699095 2.4992604497400865
H 0.6297750355005554 3.8826381726075168 2.6584651202841956
H 1.5631700320145263 2.682536684234643 2.9551181006156333
O 0.5001804574072227 0.6929469779818309 3.3607120093565945
H 0.48806000953256534 0.05086978064302805 2.6845866347037703
H 1.1598480139977196 0.482980943312753 3.9737533154348834
O 4.041489931627714 4.659710311604454 3.8354241684734443
H 3.5174385909798556 4.684843420710686 3.0767846539543253
H 3.4349316739803246 4.792229099274077 4.57011381123924
O 4.795068876069566 0.734474037755185 2.285986534672384
H 4.768420700496014 1.184197853404012 1.4446220081162702
H 3.8956566474002807 0.8028918017944486 2.619113898231575
O 0.13143451321986688 0.9670082439942101 1.3193572798362392
H 0.7541531424741403 0.43836078103469234 0.8983681080319221
H 0.4975543521579372 1.8421185427872813 1.4096340392380333
15
5 randomly positioned water molecules in a 5 * 5 * 5 box. No. 352.
O 4.146424814007806 2.128277442929078 1.7506306896519925
H 3.70626119160947 2.7752923694880054 2.230544217207415
H 4.441269338253976 1.5254712531557089 2.4078212377963593
O 1.1015489524409339 3.278231525676032 3.1052690836744485
H 0.7339493133405517 2.86531914948909 2.3444588532369357
H 0.7384801859479917 2.755648174208197 3.8403661706660026
O 2.5637695895600636 1.2115910000290109 0.9118182641585293
H 1.97476537700676 0.8335912305736423 0.23477889616146352
H 2.097980132091478 1.11123139256712 1.7180332148185753
O 2.5789894480197653 2.2583270714336527 4.721067713913171
H 3.275675240955096 1.8127129458920632 4.285097217838169
H 2.502130861608348 3.1045517133664102 4.2417442709737045
O 1.3173880472170914 4.796817704190052 1.8020498597993506
H 1.9263713754177 4.783347019821128 1.0133999134930318
H 1.9619836939213504 4.860713581103385 2.5499248698567385
15
5 randomly positioned water molecules in a 5 * 5 * 5 box. No. 353.
O 4.579312280013598 4.293565782351224 2.2328656586724134
H 4.14899253106434 4.789313206888535 1.5331201825175196
H 4.81275074625234 4.936273061944633 2.8613787595399134
O 3.0710439800611433 3.596417802773217 1.2005292287350255
H 3.5939971016118166 3.9242109923070676 0.44186265165304617
H 3.0227527487570187 4.291896365142268 1.8968708338079268
O 1.3818047678099448 3.2354766641059234 1.366270785851929
H 0.648399231138619 3.455389228535948 0.7657173629024433
H 0.9155120737256974 3.1902372950457956 2.229353281544049
O 1.4633321396566357 2.3066279386591075 3.7029285518499124
H 2.3123028081211774 2.6701464241663304 3.8639390791167214
H 0.9330008738164873 2.566118639799277 4.505400909640455
O 2.0937612493556164 0.9781922303064644 4.857435759256978
H 2.887098591417873 1.183788315732637 4.304764883851007
H 1.2948454661739706 1.175997497925371 4.31837866905055
15
5 randomly positioned water molecules in a 5 * 5 * 5 box. No. 354.
O 1.1598893108794694 2.6076319656340137 3.939372327400722
H 1.7944462131218422 2.1612802767734083 4.469592200071036
H 1.0611512137660413 2.072758008205458 3.117093802410322
O 2.3204341079035578 1.4035551503590575 2.485782987196613
H 1.5801177865108493 1.5985029334411118 1.9536694796292673
H 2.8062303436019653 0.6133815393441955 2.1860416084598695
O 2.449787692263987 2.6583966088669997 1.2934762498738044
H 2.9529098551783366 3.2663589722670863 0.6906631186007797
H 3.058174693295092 2.340144510203423 2.0423922834586836
O 3.5885103082821064 1.4636324233983626 0.9126920782888182
H 4.19607296152874 1.285221049272892 1.6143033463622336
H 3.0640662875650206 0.7048466692459486 0.8731301848340578
O 3.371420760476192 3.778317864397336 3.552692408614292
H 2.9617925135745953 2.939172430989219 3.5524148956032784
H 2.7151378251156433 4.404068498837337 3.1601358728538083
15
5 randomly positioned water molecules in a 5 * 5 * 5 box. No. 355.
O 3.55832894543623 1.4617209358560839 1.9377793955936151
H 4.339391266054339 1.777547853276317 2.3544461156906706
H 2.8914867628292678 1.3427481198579951 2.696102850316311
O 2.0472119783456213 2.5611374443179518 1.568486290456489
H 2.89308971456148 2.5947481714570375 2.0280886506960965
H 2.1777650862876605 3.23586828517117 0.9170975838715832
O 1.5763845613159262 4.392630110780264 2.375417778175895
H 2.4303810271733592 4.010882869021269 2.6783619100696225
H 0.9114534867546619 3.9280080841869167 2.9285361867686537
O 1.5860394205830715 0.8812054771666766 1.464527794107121
H 1.3941187323703694 0.07104304979311116 1.0019946732777598
H 1.913307027558291 1.4866152240685824 0.8642371183407752
O 0.24653050508379293 2.2177197477313957 3.2243045451420205
H 0.7085626424061221 2.3370771586844588 2.4369553667192263
H 0.8947863269495356 1.9683445085749114 3.8494813908958654
15
5 randomly positioned water molecules in a 5 * 5 * 5 box. No. 356.
O 3.6643252442902146 1.034050463205058 1.4181362982148515
H 4.428178923728287 0.7441023862725265 1.8585258228436097
H 3.999011025876327 1.3886913947190727 0.5931808296188303
O 3.6288727671571848 4.402204049406238 4.321398582872432
H 4.309995481420513 3.935660775191815 4.832409738511897
H 3.763650364700999 3.9592633489315614 3.46772344515672
O 1.215378632935638 3.9647352985258104 3.7131899647605637
H 1.6472217970524732 3.115616950027892 3.675596100676014
H 0.3757682812821602 3.823990851354373 3.3518009378552236
O 2.2860679912940585 0.5353664020272059 3.939497241314771
H 3.1398631366425565 0.38713894528047066 3.4880508635564187
H 2.314856102105071 0.04012231305843861 4.749727974859288
O 3.3573754188196165 4.31292045283733 0.5909797780979081
H 4.162356261929777 4.534557957972805 0.9827694140899694
H 3.1244912636864997 3.399644449231339 1.0268955052749842
15
5 randomly positioned water molecules in a 5 * 5 * 5 box. No. 357.
O 2.9189784820341864 4.098404686146726 1.2974316224867022
H 2.3309611409024686 4.052527225953455 0.5505861267175196
H 2.351031255618925 4.095694170202537 2.078643861792668
O 4.275709328571735 1.857585606719394 2.5727754804209884
H 4.95258677090768 1.2067274612791348 2.6608892621491145
H 3.5512470749335874 1.3656576424323514 2.8447869233344494
O 0.3648538228683895 2.4672805888068523 0.7938815215413769
H 0.4322957417093306 3.1214693250720846 0.06957972083629071
H 0.3482161371378638 3.0025273219201347 1.5958617786467224
O 1.7343191921133505 0.28773825279228005 1.4181619406440593
H 1.269924942332341 0.07623215099574043 2.1888240911973256
H 1.0572839026090075 0.04669866438749773 0.7511046989554757
O 4.156492749040867 4.720759407808189 3.940392433099369
H 3.6124543629403787 4.08809857199585 3.592276929019292
H 4.675752341154738 4.367309757723411 4.678874295303993
15
5 randomly positioned water molecules in a 5 * 5 * 5 box. No. 358.
O 2.6707020496476415 1.9926905520194826 3.395371720838255
H 2.4337858706145346 1.4545712082913582 4.164188727893147
H 3.0304398877313963 1.3278578648432813 2.8425974454942966
O 3.620149752480119 0.8807356444037551 0.7601375792112386
H 3.718429719853 0.16133754501365005 1.3522057976987476
H 4.504856677921431 1.068803888806166 0.4252476929864717
O 4.417227610871873 4.628883915712304 4.195741462040756
H 4.879087720458219 4.224708894383295 4.962578881446726
H 4.786767509412278 4.146233835950644 3.477922406134328
O 1.1254305804849847 0.7528074843753763 0.7736140290619203
H 1.504225728677329 1.4344826871095713 0.14420234381079344
H 1.7626038443802243 0.6311283035760349 1.5159441685350399
O 1.669410655464556 3.56273354497336 4.0648851153794805
H 1.4301383821556288 2.717538274619348 3.8198367092495595
H 2.4398308895079572 3.4194128066899485 4.746342733036719
15
5 randomly positioned water molecules in a 5 * 5 * 5 box. No. 359.
O 1.1625835509610387 3.8140880907329544 2.1377707322818513
H 2.0315703316647458 3.7871882826150904 2.5026202200037435
H 1.3702033467567403 3.4872764361669484 1.2949536690875338
O 4.108380761267618 0.4746146188560185 3.2091063819117394
H 3.9288941751554023 0.41629561737121845 4.137638253640757
H 4.947235405073505 0.03667985878360658 3.110858148087747
O 3.3250025407706634 4.440952905727899 3.675069250547724
H 3.903160522817458 4.589072851765809 4.377182298806386
H 3.861100442110463 4.234498249414611 2.897964430792081
O 2.694033865519472 2.3432319866617046 1.9880082890536754
H 1.9773744014294867 1.8379049879627027 1.551370338003898
H 3.1549615790597527 2.856322717959473 1.3371576018300826
O 0.7722272279628434 0.8700966621369977 3.753591021439772
H 1.555403170229498 1.3086642968480786 3.5405395918409597
H 0.46702954010418535 0.6778173504363184 2.885004510251885
15
5 randomly positioned water molecules in a 5 * 5 * 5 box. No. 360.
O 2.1768989695416847 3.6068895147414586 3.465570732955162
H 2.9015934682175426 3.879686870791349 2.931571947349454
H 1.452816977915012 3.8738875850708583 2.9359203706637795
O 4.507453637125341 2.2430065464297644 4.010026799277066
H 4.841521642557133 2.1701920715031804 3.131418414357202
H 4.94689497131075 1.5186051165294456 4.429212787238645
O 1.0872747648139764 2.4158714861389012 1.3185941204811535
H 0.9762593313347347 1.6580541661525623 1.8365848593080112
H 2.0228290293563522 2.496017463868444 1.2449926474557393
O 2.243755616233684 1.3971730575411623 3.2779433639576547
H 1.4348495811805322 0.9406815497067095 3.302961631113916
H 2.2692116912900735 1.658836532352128 2.3464828161118247
O 4.846482575629834 1.7873038913944934 1.5416666742342622
H 4.567793368351268 2.6680232472112833 1.3913667442993587
H 4.878999548547858 1.468703257022834 0.6541779901999736
15
5 randomly positioned water molecules in a 5 * 5 * 5 box. No. 361.
O 1.5845261626235114 0.8479166757964246 2.2062539686588236
H 2.077846456745158 1.291972699915783 2.8966006563392668
H 1.8025234945159163 1.3005953229983018 1.4196312620995588
O 4.430819830861454 2.3511207289476688 1.7195993295429413
H 4.1030662699501965 2.3337081853368646 2.6467734516929378
H 3.980436552621664 3.0830282038823222 1.2409803810613333
O 2.258776531510512 4.23314804998895 1.7196246007615708
H 2.386593778490629 3.458167482110931 1.3875665569934754
H 2.9693189423726585 4.437384794673532 2.3818426651782003
O 2.1785807768029186 3.924287744733536 4.848920725410261
H 1.4175544784304481 3.4633662763860373 4.594594538557398
H 2.4992110793648035 4.383487037909385 4.052634579598671
O 0.40108820601208406 3.133396958768962 0.8759185552691634
H 1.0969510290611026 2.5783802389730526 1.025177441269261
H 0.1381597174042445 2.8140315787938803 0.03252829292908854
15
5 randomly positioned water molecules in a 5 * 5 * 5 box. No. 362.
O 0.5471340264916325 1.208794139748945 3.98667866735828
H 1.031057684378041 0.8173960401973965 4.661883021926158
H 1.1868851331340249 1.68694875680701 3.5253020882938624
O 0.5267482164782922 2.8981144502019434 1.6406245251233609
H 0.7379685586292991 3.041475523772224 2.547508404113472
H 0.4634942072968116 3.765059417276653 1.3148534265365008
O 3.962172813758422 2.600487512848412 2.865682828187431
H 4.149147220289221 1.954503207392231 2.1401210039041816
H 3.7223973371163557 2.014108715095123 3.6111920058218225
O 2.0318600380773937 4.077558850632431 4.151049504402707
H 1.5877110296957608 4.5038065884739975 4.868450637079907
H 2.1602422034982056 4.718039704630039 3.499597928980124
O 2.96234744934723 3.7355807261355607 2.548398180700184
H 3.692800564243334 4.132420468290476 2.991760726620652
H 3.200869802713865 3.513856675903183 1.671290190075392
15
5 randomly positioned water molecules in a 5 * 5 * 5 box. No. 363.
O 1.2821213832571217 2.760415822562481 3.8562151528306248
H 2.1138448392134475 3.1566215840323464 4.057117446145532
H 1.1065478531750934 2.1201274626905744 4.538869494346223
O 0.7285180152153337 0.6668168371901045 2.3827499793913773
H 0.7124837685201227 1.2166673752576505 1.5400504498560776
H 0.28929787383908123 1.2210304619342274 2.974435328803194
O 3.5877976351399603 0.811822339387861 2.699805555631068
H 3.503553960671535 0.25434883140522113 1.88926982529378
H 3.4694547702239227 0.1873855028290975 3.4583204495709055
O 4.480406100881894 1.21071506896756 1.0145577130556238
H 4.037625298669214 2.0803955940345267 0.9961187026819635
H 4.144749771554292 0.7364930545499576 0.244054978030377
O 1.9277048202259301 2.3909301383395567 0.4422370854810759
H 2.4895637109749797 1.6556810605164387 0.4694658932172889
H 2.2466824346328 2.98215556445556 1.1080444292184546
15
5 randomly positioned water molecules in a 5 * 5 * 5 box. No. 364.
O 2.641158768254766 2.305406488116097 1.868102195771243
H 3.3720148541540507 2.579242721691067 1.3908998156134342
H 2.0441999153967436 1.9951101165295735 1.1337315145643978
O 2.667493291383554 1.3569924546225454 4.307031922947716
H 3.225973224075506 2.0405318123886493 4.007022736972981
H 3.2654382154198935 0.7972261220200364 4.800777491992971
O 2.4338189057817257 3.536386732824293 4.589880657105685
H 2.600728231005668 4.487891958322402 4.436981220666774
H 1.9633169591288828 3.2077571585097635 3.8159056832739493
O 4.53568219400077 3.7615934582943513 4.060267650084491
H 3.9761787072367474 3.3713706629004703 4.767138211016887
H 4.824740982245188 4.581665573161764 4.380035493171258
O 1.1084434805218035 4.570614592671845 2.6344432908658595
H 0.6719923630621629 4.914096788987049 1.8237257093024424
H 0.5425435449004656 4.854320391702665 3.333708108633421
15
5 randomly positioned water molecules in a 5 * 5 * 5 box. No. 365.
O 1.410238050597799 2.0222585967130886 2.0104062886372462
H 1.9809754332259386 1.34517600551787 2.35122485042096
H 1.838041217541818 2.473232042092182 1.2738766164321527
O 4.489540393557762 1.7331719797573348 0.9315472707657452
H 4.929677407995299 1.2745378872107946 0.2543044029051781
H 4.7708525899891026 2.6552305518895656 0.8365200861543626
O 1.6898226933262 1.9044915094988841 4.675224517486126
H 1.9460772562220068 1.2112076257431026 3.9664910027531626
H 2.464366606894207 2.541012069570146 4.758803914838225
O 3.7889238447129596 1.8643126648350583 4.266678472066938
H 3.7753407330826243 2.839631795805263 4.127660383164602
H 3.621238125940196 1.4764524713609768 3.417899006860045
O 3.7169026629594217 0.3241073964495378 1.43499810397907
H 3.6395405604867173 0.8725160052086228 0.6709295471654296
H 3.7490461506548276 1.023674057203972 2.1424985778582513
15
5 randomly positioned water molecules in a 5 * 5 * 5 box. No. 366.
O 1.6998088393503314 4.032571138357291 2.8273313420652983
H 1.520886691079059 4.60150122801676 3.545815179880079
H 1.252734250822892 4.4876377742929145 2.0990071918002595
O 0.9813484819104235 0.1616997285647781 2.7191938954314807
H 1.4058912484012298 0.9772601979560551 2.8346787662821784
H 0.07209650100876663 0.442370066549055 2.8305507863611545
O 1.0206710400974357 2.471392152556805 2.9496256867882273
H 1.3172479181998358 3.0278975238347376 3.7142712219090797
H 1.0673014707546347 2.9590253571810745 2.15403955682714
O 3.5319861075086187 4.408206318435529 0.6132193384892015
H 3.5699268375356215 3.5860457037328093 0.02135459636837367
H 2.7346296088947284 4.295018052226799 1.1871332884055343
O 2.592412305795162 2.0524639362552044 1.3604435629450289
H 2.361156992851906 2.6093226984783398 2.0649453551378283
H 2.9533046729463313 2.544582398794036 0.7310406633898157
15
5 randomly positioned water molecules in a 5 * 5 * 5 box. No. 367.
O 2.337367793889547 1.3673066074752993 4.174166791529886
H 1.6288488836649615 0.9454010661362537 3.6754075714777814
H 2.121855689081343 2.268467814227935 4.045019540503263
O 1.8668401478557783 3.534159562974133 0.6696614668900019
H 1.5495174022435445 4.337646984871982 0.2272328615559598
H 2.4650722942194934 3.1067893000537494 0.048610599239645946
O 2.4137584259191067 4.551218332542714 2.933840061445588
H 1.9402269089975437 4.221312879128353 3.6660867337018015
H 1.955009751559942 4.115341969291251 2.2115918753730432
O 3.752503425093541 1.9571569539412463 0.597398708973092
H 4.3747985885806875 2.7166213509207835 0.4448877513087573
H 2.958213934804487 2.3348342317904907 0.9566407191948654
O 3.9497100489478982 3.0956196672221536 3.983634819453388
H 4.45914013730011 3.8535513205283687 4.258564165373525
H 4.43673182618904 2.3086548088855805 4.25396401255257
15
5 randomly positioned water molecules in a 5 * 5 * 5 box. No. 368.
O 2.182825940709294 3.1296224077279504 3.9330128067725085
H 1.9563237464872703 2.209533458929342 3.637776735404982
H 3.0071895132602626 3.0355769915593678 4.408113430908364
O 0.9361925147543843 1.3798382016904265 2.0764286774826797
H 0.08542335711418148 1.1296494602822786 1.7024288856827323
H 0.8475920241644133 1.1543587753833555 2.9654356975538714
O 0.9021334094030603 3.108278979576677 1.1018426157871413
H 0.2396333104934637 2.570826773508579 0.5861963042164546
H 0.3791602158949783 3.4774954202661474 1.8196696574477205
O 2.1668609469837814 3.498222638451882 1.9730041341246145
H 3.1073781482359784 3.4406253240960902 1.589100971938658
H 1.8603526996733688 4.322358181038331 1.8785785729877937
O 4.264580564792081 1.0585815341975762 4.0871732498725075
H 4.574275225408232 0.2801038062877559 4.477747515632717
H 4.8022390858373205 1.0948210789049262 3.2825520826754557
15
5 randomly positioned water molecules in a 5 * 5 * 5 box. No. 369.
O 1.5993763133826633 1.6196206428899984 1.0027958540985344
H 2.5123534129332477 1.646795688086337 0.9740738001666218
H 1.3238351829384007 1.3673716453885456 0.09809563414048605
O 3.6196386870896147 1.3027535951407727 2.977325199058299
H 3.600978552714656 0.7844780048618709 3.7792272952827024
H 2.7955986876551764 1.1626726575772914 2.4271505993414806
O 4.004892666729859 3.2224925829060997 1.8964119683407543
H 4.036188485164828 2.5900858088765304 1.1914776035269896
H 4.17880341724759 2.725800406473561 2.655939511451331
O 1.5214686846004284 4.281294138689062 3.9980172460995558
H 2.088692642227286 4.8612615112969895 3.5482895748451666
H 2.218441725297501 3.694777666206819 4.430122092830325
O 0.5211648835022448 2.6531496996068467 2.985652823861582
H 0.06834209642062228 3.3503659560336274 2.5048209577792653
H 0.5217821472612915 3.0156094374878712 3.819934941480718
15
5 randomly positioned water molecules in a 5 * 5 * 5 box. No. 370.
O 2.7275946779391425 3.6789043807761797 3.166550340588212
H 2.324589729827018 3.35720589973812 2.4145150737465255
H 2.037224364802779 3.8297917932726917 3.7732192835564597
O 1.1958363939576055 0.34866892792700444 1.0384347083242655
H 1.9850343310389456 0.5548591774179632 0.4858550261343637
H 0.8629453503595852 1.2348652293898965 1.2145149945915255
O 3.838758797277662 4.028620451702368 0.6328991148261193
H 3.5197705114491398 4.900241703001235 0.826131390266763
H 3.1000538997614893 3.4649822099047296 0.5263737369357611
O 1.4709715378147954 1.9546288586554672 3.396020547567329
H 1.7292821252720656 2.0555965735114308 2.4871329127817186
H 1.980912314655043 1.2621046446216422 3.774274896934773
O 3.774277617061874 0.22801176834941983 1.9890827397681181
H 4.634271192276257 0.31184352214644606 2.3622088696795713
H 3.9429278092067155 0.03767271310597242 1.0946311236002895
15
5 randomly positioned water molecules in a 5 * 5 * 5 box. No. 371.
O 3.5097989878351648 2.609482903390685 3.3169699972843225
H 4.266222562827705 2.1873234645483937 3.6744474175570865
H 2.8495889403595935 2.014738399362945 3.6991654571864303
O 3.320971332963608 0.5954037760334452 2.0773213259920142
H 2.7551401007141516 1.138674426325374 2.6221927639453018
H 3.224580374224428 0.9419372341843131 1.260889797677406
O 1.361458527713168 0.3268213117511021 2.48825117924955
H 0.8765894385789194 0.9240619080366503 3.0975714066735844
H 1.0729575329498804 0.735391858972738 1.6285228076786342
O 4.090176243489946 3.399060467343542 2.048434756463631
H 4.705205251972304 4.04950990196041 2.308078153566039
H 3.233473434611243 3.8749633399929118 2.1305614976577103
O 1.2972454271967933 2.832381722200401 2.4351065417515416
H 2.235775898461127 2.66639930617121 2.349421301417668
H 1.3093642679917092 3.7207691274294596 2.756120909096188
15
5 randomly positioned water molecules in a 5 * 5 * 5 box. No. 372.
O 0.8346909319816453 1.2713721505999154 2.073960644642763
H 0.6501576398544147 1.1866478820270439 1.098258712461552
H 0.03528954693792663 1.5872731040556778 2.4444300288074405
O 3.653260956118369 0.31330442426988014 2.2265927218000954
H 4.153890668038587 0.7833647470373603 1.5122742095927757
H 3.981113136930778 0.6547174511994585 3.0658634773004163
O 1.0187710358769897 0.5296537985926963 4.362384199300297
H 0.2162911109647433 0.3978334010724556 4.859529645202881
H 1.3560428950278038 1.311113497087189 4.704327389315521
O 3.92902206315553 4.039232912610275 4.064298133969588
H 3.514128569683651 4.347487985817272 3.3389900331370606
H 3.724841962854474 4.729711559438054 4.686574478492296
O 2.173212744168887 2.982666676119779 2.333397548707054
H 1.7137491984067277 2.4812000313559603 1.7252874704353094
H 2.4404944885014537 2.3780020275936327 3.0004888558630425
15
5 randomly positioned water molecules in a 5 * 5 * 5 box. No. 373.
O 4.9807015552766645 0.953585538038132 3.547400262190668
H 4.22701530021537 1.37297125932568 3.960722112927115
H 4.6533090306606795 0.5856172992529776 2.764103021055286
O 4.544160942374981 3.8946494916889702 2.045094511052321
H 4.95168507948081 4.122511244646223 2.818697800620527
H 4.954730569420829 4.446655876940214 1.3730422518883183
O 1.7336671985431673 2.2275229083430057 4.869555938494212
H 1.4984756605038516 1.9622216932738266 4.003009931603492
H 1.7615410319669247 3.155352347987317 4.961241932874224
O 1.245055271717594 3.472204863414636 2.193660178978157
H 0.5696280197101726 3.874786037792871 1.5943140583349444
H 1.7586401907366427 4.175215113225548 2.534004107437405
O 3.346090097001558 4.379738652668411 3.202430388740376
H 3.4686652492874 4.7555292705875845 2.2677261354549705
H 2.8432327076897606 4.979101134429779 3.6821697871452708
15
5 randomly positioned water molecules in a 5 * 5 * 5 box. No. 374.
O 2.3255873948052184 1.7837489941231617 3.837087040197684
H 2.6334700896676977 1.3831106710369376 4.657191737567136
H 2.9286409065465286 1.4249944494472615 3.158917793762864
O 4.226531272111934 4.249217460355967 0.5824472548542853
H 4.841709413517519 4.824213857209722 0.2517230033308707
H 3.838958183570598 4.715381056996571 1.3283115128205298
O 1.377426719486653 3.8288970329489964 4.255898974963052
H 0.6485895006648351 3.2608171953232814 3.907568287095904
H 1.972184403025108 3.831518831046863 3.478926751765328
O 1.7769509917867583 2.1287340549225364 1.6282655565666293
H 1.2602501971258104 1.6256326536615586 2.2518536900601926
H 1.8259684534234015 1.575146166715982 0.7937584577538219
O 3.8269138701592578 3.7467857435448346 4.0350566892857795
H 3.530985439770416 4.4658629517086395 4.471315767290955
H 3.3930527093232534 3.0171972688084576 4.598967468559202
15
5 randomly positioned water molecules in a 5 * 5 * 5 box. No. 375.
O 3.9863438130397992 2.849066183430342 1.6951498533087799
H 4.131688038114633 2.5668804499163116 0.7964101649439734
H 4.710392489931015 3.445100417057708 1.8353914196715515
O 0.9936737702705861 1.058194086634579 2.2218017616510037
H 1.477552252335498 1.2251235029532577 3.0064128241700487
H 1.4711969139260288 1.3705169511230795 1.4490938702690472
O 4.003593855926283 0.6575528981469875 3.73514953418129
H 3.584454071272903 1.2286088256055558 4.334642749526852
H 3.4228372638398605 0.5964935900454775 2.9505519096123516
O 1.72775239935402 4.186207815065296 3.4975034170567127
H 1.5289186417027723 3.7102238534582916 4.28910546105779
H 1.500960363003097 3.6421016806351414 2.714991545773675
O 0.35776383219265406 2.5654391893044663 2.918022794881322
H 1.118178875463418 2.430141196814543 2.346797861840405
H 0.6459386587646226 2.0837844100250464 3.728336691259035
15
5 randomly positioned water molecules in a 5 * 5 * 5 box. No. 376.
O 1.4989499878205736 2.45088437589723 2.1097652678041277
H 1.4307598091260003 2.5204462243637984 1.132640206922326
H 0.9276115319472664 1.702763476212743 2.2803435134070105
O 4.050912908723605 2.9131785093041866 3.6139013543322234
H 3.5795483347037536 2.1219372249308925 3.6033321393713296
H 4.602576119465534 2.8110093060330454 2.8510261153248115
O 3.4926877124551083 4.498586472307767 3.2078396554421555
H 4.145076366967147 4.640291537464092 3.933836968423979
H 4.108081655395698 4.54589024579883 2.418481345725987
O 1.5643775758097433 0.7893604152818384 0.11883010024872465
H 0.9165978421163802 0.4689105256603531 0.6729803969272348
H 2.373883366006403 0.6037052232087454 0.5686985711819791
O 3.375141401456434 4.150781855986329 0.3138996963317414
H 3.5734826783208975 3.3438196940022333 0.7601582250006884
H 3.0288986438207424 4.640541181165067 0.966897379425824
15
5 randomly positioned water molecules in a 5 * 5 * 5 box. No. 377.
O 1.440951478419628 2.757299969736762 4.5679593893143515
H 0.5199056945523686 2.6593706782059643 4.3100787971553425
H 1.8556380418220484 3.3219070696001687 3.900764675224605
O 1.9704884504005644 2.006622353431572 1.849324665202405
H 2.623179081051661 2.568743919658231 1.4672081260393908
H 2.13622577069573 2.070241198644308 2.7935243562229366
O 4.372610702347509 0.8906495377343054 3.826082428324496
H 4.947660428293043 0.3221659145114265 3.367596715562393
H 3.5889179455936757 1.0223221999474286 3.3042721679090317
O 0.808117775868839 0.3862416951260583 1.634397925949237
H 0.9076638531701381 0.9926324329570222 0.9116178934916604
H 0.9839529305851604 0.9410682783374462 2.39894206609314
O 3.0161342089392695 3.9220509937906227 0.7046026987975784
H 3.21226514338295 3.6042569734918786 1.6170409628394986
H 3.8679962091545512 4.182048018532269 0.3618456523346315
15
5 randomly positioned water molecules in a 5 * 5 * 5 box. No. 378.
O 1.9187946562368778 1.3152624199406864 2.4769794374323943
H 1.2442168220989134 1.4404233361926262 1.851941067119259
H 2.2236958180656847 2.2402198686904997 2.5962626577886487
O 1.080512620443339 3.0777926409988874 0.6886531732010254
H 0.57837119300373 2.3770226948692215 0.2242540836069331
H 0.43562729797847155 3.5166537910947726 1.3312285095184702
O 2.5723913865714083 3.9513887076832788 1.2873926474034065
H 2.645161594537314 4.733839187361959 0.7009686929616559
H 2.589474555631229 4.359422246859821 2.160374784855394
O 0.9642928511350501 3.1410516812465206 3.8683847122135036
H 1.4623917021508008 3.755697631103274 3.3142567306702966
H 0.9851254597607505 3.5636041544888126 4.766143085985576
O 4.12078074286793 2.5042931647257176 1.9368103615192607
H 3.3073196236527185 2.7715044453331115 1.4557984773001917
H 3.819618992878409 1.7609389346863542 2.4431434731691675
15
5 randomly positioned water molecules in a 5 * 5 * 5 box. No. 379.
O 2.048160113894222 0.5973600804756302 0.7220666573191759
H 2.935573859918737 0.6655395319912144 0.3323235993115575
H 2.1262457278837164 0.009198559021257435 1.4393305984587161
O 0.9268021146822131 1.0408150965552798 3.75254499471333
H 0.3543253503068675 1.1151482296897106 3.002559484302673
H 0.32014869226148523 1.1134988384176434 4.462709150153694
O 1.3390544680467398 2.801407928699651 2.7184859387105567
H 0.5939471540322899 2.512790629185776 3.2692622223494108
H 2.0583106552091266 2.34120679006924 3.0305622743752596
O 2.7432874826493214 2.307254260164164 1.243172644520436
H 3.031490289950457 1.5613730686922038 1.6934417805388373
H 2.302494119365392 1.897389010034316 0.4928754851520014
O 2.871907868136774 3.3234694918437233 3.9972987135856752
H 2.5838868520552483 2.815511576828668 4.824746296279219
H 3.1919560240979346 2.6158089677695324 3.326457158399041
15
5 randomly positioned water molecules in a 5 * 5 * 5 box. No. 380.
O 3.844605578342816 1.132424375679979 4.010678728173923
H 3.8011864477155926 1.8719490260320932 3.4337764598395024
H 3.902657071161516 1.5061559864430496 4.876887258756878
O 1.78728645778184 4.104602987211717 3.0532791056498523
H 0.9245220492660619 4.488324442545589 3.022773012678527
H 1.8314142753706695 3.5052508607766817 2.331092010921947
O 1.9564982575088141 1.646043646445004 2.928342695047077
H 1.5850680595791107 2.0850869382461337 3.6932721238594226
H 1.5440710661435468 2.1307270470128317 2.1543286075442367
O 3.665630390941314 1.2229919781367504 0.9718729980253787
H 4.1512067097019765 2.028927525542929 0.8571482512075685
H 3.906808360421271 0.8506664854015278 1.8268938082215902
O 4.082965332410112 3.875574246422144 1.7868121458091935
H 3.546241280214332 4.022804448452017 2.516091768129346
H 3.5945988110061013 4.372225527426048 1.1534809871531067
15
5 randomly positioned water molecules in a 5 * 5 * 5 box. No. 381.
O 3.6822323300339175 3.1170528240358486 1.3219943121916362
H 3.0724400618628858 3.760887635786748 0.8965598158846759
H 3.078875672739443 2.6513361940611193 1.8419089875158028
O 2.018971278072958 0.8601227063870798 1.2235104102901513
H 2.0693945281506783 1.701915217276079 0.8138670097291765
H 2.2724412816595945 0.2353132954690229 0.5477365584259843
O 3.887938785542352 3.3781045819463653 3.428626117096398
H 4.041570408487514 2.9293906410470623 4.273684474026903
H 4.70273474119367 3.831047121061481 3.294597130000993
O 0.6680771181172906 3.1351507485987264 1.4328915698226714
H 1.4803911761650945 3.1488776971915753 1.8251812639135958
H 0.1271926123204985 3.4717866068499332 2.0111402716779483
O 0.9746719078386901 1.8408146219798054 3.2521155522566856
H 0.41523090198062684 1.573072673516988 3.9598353352741227
H 0.7011275683126611 1.318630716011962 2.515302091091025
15
5 randomly positioned water molecules in a 5 * 5 * 5 box. No. 382.
O 2.325553420280217 1.2120337887307064 3.1002884336188647
H 1.8225052885410422 0.4614586959306677 3.442756988003815
H 2.967053796813046 1.402282908528223 3.7724105841514426
O 4.332704850841137 4.370919725820243 2.1258961119309827
H 4.5694606179101696 4.891220837957723 2.8727358344615976
H 4.581641073810351 4.923570751945581 1.344034513957634
O 1.1619141879593087 2.205716057509016 1.1303156579263662
H 1.4102418515886372 2.2193569204408825 0.21057602209120352
H 1.7746823341543099 1.6602464651350195 1.5903770275788647
O 1.361706395887946 4.34277648022812 2.163503151047479
H 2.017707012825507 4.298794337116866 1.401961538204419
H 1.8159994794126701 4.023669358037198 2.947290270873843
O 0.3473058928260253 3.8235278080632593 3.941955254461604
H 0.7510360671215865 3.0608861974528385 3.5524305601092725
H 0.6248368094865691 3.8146998364063056 4.818574569971499
15
5 randomly positioned water molecules in a 5 * 5 * 5 box. No. 383.
O 3.957445970694166 2.375477701200204 2.4060907801594995
H 3.6468533311896048 1.6078640142217624 1.9459119058878582
H 4.417793341429951 2.836499462872471 1.7835251592809656
O 0.08504865926508065 1.2516798307373644 2.5298285541085845
H 0.12491992934700519 0.5805173030231728 1.8022202488506136
H 0.08938992227454093 0.6757270442549014 3.2253801968413036
O 1.0610612556281889 3.0318635265257483 2.967512575500208
H 0.4803168640760883 3.561743924565844 2.39114785823269
H 0.5770376323341233 2.7359673481184443 3.6605787150207147
O 2.9322134818311345 2.2167997973138536 4.164263287496581
H 2.6360943196608067 2.9462638253981277 3.6257433426911
H 2.1211352857447965 1.7264170632269424 4.1799978557199875
O 1.6847713673683617 0.9517938080518262 0.9988711541512663
H 2.3948031969519814 0.2800979674676981 0.7036058126773176
H 1.765314159237325 1.716742362928465 0.5826300341807433
15
5 randomly positioned water molecules in a 5 * 5 * 5 box. No. 384.
O 2.053070401671176 3.485210479295424 1.9201189083139885
H 1.2701976358271547 3.386001252116307 1.3641148251142978
H 1.6500224556101615 3.42104061244635 2.765728469313763
O 2.179824262138093 0.7473287532365447 3.585529108579264
H 2.163481112884159 1.3262380718769178 2.8418864599729274
H 2.2255952074968754 1.2860294133878918 4.3514259176266625
O 0.2587363305402507 4.189353482712327 4.01129148934844
H 0.47808857637979063 4.7373377570377935 3.263551985716407
H 0.5276137349480079 4.73687349373999 4.784508610106089
O 4.008192010429764 0.8083585287208084 3.8213071652109964
H 3.733443247949795 1.008040454739311 4.734985792637028
H 3.4122423023560513 1.3781868734947458 3.3284381494156654
O 4.38423878611622 4.134770925944041 1.7181846484807672
H 3.8473975950939083 4.901544147583501 1.4506530591184426
H 4.914008984592935 4.460855511085592 2.313963119474667
15
5 randomly positioned water molecules in a 5 * 5 * 5 box. No. 385.
O 1.0287997498811001 2.0948610891875257 2.0627448109484092
H 0.3140599786909961 1.847018222239657 2.7148972245102567
H 0.6600714327602522 2.6773610445709046 1.3403780562359062
O 3.282309069438587 4.385822646310791 1.1827538755144384
H 3.244834518494768 4.512915637682049 2.1221686797883486
H 2.579037320003485 4.8414536752635104 0.8413909196311182
O 3.570575453740793 2.5405695235400887 3.809745665993285
H 4.496830577899033 2.569956878233116 3.8901835767806205
H 3.4901724529201026 1.7427806139122024 3.2306568190805107
O 1.7522015133931834 4.016194773130772 3.735506824798213
H 1.247392328457906 4.780348979344156 3.6309647105062774
H 2.351474905524922 4.039428699185561 3.0002278186347047
O 4.020872319607784 1.1320080194504156 1.2978268592237696
H 3.6834001121287563 1.7739493427778608 0.652111254862775
H 4.073705256337417 0.31487901751239633 0.8408189832113704
15
5 randomly positioned water molecules in a 5 * 5 * 5 box. No. 386.
O 2.945346655941731 1.28935699696193 2.296757993609474
H 2.5651417985472516 1.378250384726825 1.410063872896052
H 2.658797568377766 2.0700485466439735 2.7366197865483994
O 1.6315938678423536 3.999110377434855 4.401458616519498
H 1.5863045938138634 3.6786247123080775 3.490076684578406
H 1.0026034912827066 4.745697385658835 4.493735897748421
O 3.7853447776489086 2.902527351464945 4.170388069307372
H 4.624107551338321 3.280252614345433 4.441551744604833
H 3.882665545960293 2.681540876990001 3.246320429341235
O 2.0152127047708235 0.5725717057064517 3.693941079562651
H 1.3527489148788547 0.8752838032360439 3.0707007136955893
H 1.4989291968444332 0.24764868552384955 4.5059903760850215
O 4.650868608615876 1.386804290088709 2.069258518169825
H 4.795025186531161 2.326548124515529 1.940700388840185
H 4.0701394777337345 1.178965177258983 1.4101733797822766
15
5 randomly positioned water molecules in a 5 * 5 * 5 box. No. 387.
O 1.8044949935658683 2.8106074616688783 3.7668635043150402
H 2.193523703900678 1.913638143128165 3.909455027927025
H 2.5392854918635037 3.411500901651876 3.874205196624876
O 1.936820718888395 3.825156268311111 1.7582936581330566
H 2.780460868904207 4.012895359080751 2.0061757761079915
H 1.9299631905110974 3.8999589482713204 0.8090550492405196
O 0.4550220282004658 1.9464336211830169 2.2837616738457127
H 0.14952089056036427 2.8122209145451986 2.055094544247623
H 0.040400740393244094 1.3204674574159136 1.6432014125412773
O 0.4202549228853436 0.09381663502799287 3.3236861116326204
H 0.16980784656855463 0.9448276398877662 3.058382581456382
H 1.382552295321168 0.10995629384536565 3.4490552033750075
O 3.5857674111767928 0.6944210752560448 3.2359656874640153
H 4.234814048025003 1.1499980075421696 2.6704436851985003
H 2.851639345472425 0.4288990062199335 2.632173882955196
15
5 randomly positioned water molecules in a 5 * 5 * 5 box. No. 388.
O 0.5554302316611609 3.52748435115324 3.8046621368431603
H 1.171670344153163 2.832915510984341 3.7712063108538194
H 0.8347740413874563 3.777004240467486 4.661936251484903
O 2.9526777281517695 4.591810596441459 2.9982059074342784
H 3.4813983075023 4.617273288363379 2.2068294810656734
H 3.60321345490021 4.469194265815983 3.787621403246381
O 4.559045617586355 1.9274070795521285 1.0383719889740506
H 4.400039019536316 1.983882447927959 0.07438423937296601
H 3.8263640878636775 1.446010017548283 1.2449666974267117
O 4.2693828235807105 0.6597992757860521 2.8303196333105958
H 4.104359307971256 0.2320969911470937 2.010808392471266
H 4.226453152077073 1.5434639452991108 2.677431808367114
O 2.4738681628781007 2.1072284295429804 1.0321723567325218
H 2.5301083705172807 2.0995141478798893 0.14487692512232853
H 2.6819117222327344 2.9755465696155716 1.3121266989207299
15
5 randomly positioned water molecules in a 5 * 5 * 5 box. No. 389.
O 3.388536034878424 1.200016678247372 2.7258785234917156
H 4.331173790114831 1.0401579248979655 2.7287000971085016
H 2.9190763488379887 0.3387041919634872 2.6205395272500516
O 3.1870296526100956 3.956188466763863 1.2479839978198908
H 3.9725501774010246 3.4699453018326265 0.9367524136318596
H 3.50799339219472 4.502841231710691 1.956170284906888
O 1.8844703305660127 3.079829628240258 0.2947862268999274
H 1.0469140254730762 2.596945279632394 0.12619435673954943
H 1.8987592315988597 3.157875895100914 1.2945625447844327
O 1.145530611117297 4.419683106927147 3.9508196756755245
H 1.1293011864947784 3.4845809945155986 3.7240163151617147
H 0.7008030989864565 4.392350669992537 4.781282286308306
O 0.7948649229319293 0.5482398222667545 3.585410878196435
H 1.0654947713494711 1.1848935293658815 2.948033838555004
H 0.12548868380498113 0.09028033401750524 3.118845913387647
15
5 randomly positioned water molecules in a 5 * 5 * 5 box. No. 390.
O 1.636202586873023 4.117455797095927 1.9607810257833953
H 1.136559448903932 4.1665769295723845 1.1803991588108684
H 1.0366425870874665 3.739506746186095 2.621906469590759
O 3.31050013023998 4.162929823998035 4.620137072454589
H 4.208116266099845 4.078457770897985 4.950517594757639
H 3.0247073828128843 3.28972952597762 4.407603554379142
O 3.9963595794711853 2.482202910246452 0.25422574068733106
H 3.2736486967246474 3.043493563846133 0.02769956394425299
H 3.5206137865213236 1.7820123075095187 0.7458039584922763
O 3.6043017170470226 1.4374099643649585 4.621406988709346
H 2.6742268596754 1.3406658767537492 4.565070932574631
H 3.968818604995363 0.6457576544041838 4.2405335468636745
O 1.2223909913094229 1.353473818104688 3.858721512172477
H 0.3165081673920931 1.0896188464362544 3.8236421902363364
H 1.465837280224635 1.4312642675000786 2.9169452941289755
15
5 randomly positioned water molecules in a 5 * 5 * 5 box. No. 391.
O 1.2428107453949555 2.4422347847160584 0.8592449948539244
H 2.062722451483377 2.6429623192158833 0.38373148620353026
H 1.4372994317686048 2.5972418295696262 1.71694282418271
O 3.1318706942220076 4.569584937303101 3.3845075614069673
H 3.610555501175369 4.153263064452558 4.092565064638936
H 3.4387279080450375 4.251067502263067 2.569854457935481
O 1.1825899976652203 0.31154955629236036 2.9168932340631
H 0.3485463845398207 0.4292448069633838 3.359534506554332
H 1.406880495585992 1.069106130367893 2.4696691994620834
O 0.16861120048860645 1.9466673417712077 3.482508019731203
H 0.492903372035978 2.5858278061310074 4.086313428690246
H 0.15525139870525767 2.4517805021613572 2.6325905492598194
O 4.094022225008707 0.941535669797402 1.7092884981717575
H 3.7096604424464403 0.773698027638839 2.5719044416169154
H 4.771196800554764 0.23939635670332082 1.5697998020102617
15
5 randomly positioned water molecules in a 5 * 5 * 5 box. No. 392.
O 3.300872170493236 1.1016089015315482 4.084286500344067
H 3.882845148216939 1.8411753924871312 4.1338724683387955
H 3.582039994683528 0.49326359659399077 4.761481913645403
O 3.8399424721129116 3.861084330237711 3.297158983940423
H 3.246689974901058 4.5587408211279365 3.467513010117873
H 3.304819818024908 3.293649595821251 2.806371242979799
O 1.3424005619663515 4.148157863134157 3.130035101844497
H 0.7940329981791129 3.578862730838037 2.482215644501017
H 1.2024603599663286 3.7930051622284218 3.993956616285549
O 4.992273162887259 2.7482917334871826 1.1716287454583711
H 4.145754456496919 2.8761020182321073 0.6798614418658344
H 4.706871806420368 2.770173087288294 2.051605728951138
O 0.12449315087382118 3.113261599365884 0.9305207745852634
H 0.9659576866982327 3.440729102299459 0.5677745973308145
H 0.2404971357256867 2.143865235488776 1.2234917096828588
15
5 randomly positioned water molecules in a 5 * 5 * 5 box. No. 393.
O 1.9225361048775418 2.2873634173653308 1.569895026714605
H 2.3255406013137434 2.1518753624458644 0.6878651811879406
H 1.204562817482133 2.9145344093731946 1.471669073755268
O 2.8753457505940028 3.9633186464818433 2.373655897725441
H 3.576417375319935 4.137275166579416 3.0101246085209805
H 3.187639287012541 3.219139668487082 2.0460309350334165
O 2.7208985638858856 0.7135496487437926 2.675908479790314
H 3.127374435285796 1.1174509238613268 3.448494114422016
H 2.1206086124407832 1.352046198096441 2.3172440236889273
O 3.5568204347372054 0.5851054747299667 0.9001066870848545
H 4.561120695224037 0.6556852136449781 0.9361040131830368
H 3.365259550687559 1.53327421258959 0.95091595638953
O 1.8760907734901915 3.0730546586361025 3.895917890446208
H 2.502472289848667 2.987435191546264 3.111863603080632
H 2.5349852139610665 3.032298897332738 4.6608595372223185
15
5 randomly positioned water molecules in a 5 * 5 * 5 box. No. 394.
O 2.656194456465777 1.475670096872529 3.7668707333869635
H 2.166118862327493 1.578912463413245 3.034368104332477
H 3.0063132176473317 0.6139267519053859 3.6366875651723016
O 3.9439760900306426 3.1400396322770288 4.6988275570031295
H 3.2952227909769327 3.1010819819337962 4.07572944209171
H 3.9696708858705776 2.264592407443848 4.984243069248902
O 0.5412891666805547 1.0530457316999409 2.5658012765153186
H 0.0760638670218105 1.820794429909657 2.8423123103859464
H 0.934534001801649 1.3743949405142892 1.7944472944847962
O 2.7973223357795 3.9744895390239336 1.7021798523212213
H 3.3327319974221052 4.104658656240731 0.9096758732791277
H 2.1849811048050114 3.2768192667973226 1.4492780101607294
O 3.5323305309251785 0.8079859103707937 0.9429145189654409
H 4.122828817861082 0.6470419391834674 0.16397414023698054
H 4.136812877946186 0.6258811801782094 1.6711699265360207
15
5 randomly positioned water molecules in a 5 * 5 * 5 box. No. 395.
O 2.3097221198214584 2.2730759686566038 1.3322748530910884
H 2.0708828006216 3.006012763239071 1.9199021556467355
H 1.4735945140068554 1.880727150249222 1.001027480862083
O 3.241054962220309 4.600793624383542 2.4881405858819337
H 3.8042479520877728 3.900728456546843 2.155227493857199
H 3.037126860563192 4.324686038186108 3.391308563013164
O 2.665160699225588 1.1779169802981082 3.558616561168092
H 1.932913471084308 1.4515796782675277 3.058355942928363
H 3.1745702450127324 0.5619886083558517 2.9690080350240793
O 1.4096714773112728 4.476454659316583 2.2887310222285944
H 0.7032051599753418 4.689033006010768 1.7824921301615864
H 1.0826023588322546 4.044921220053896 3.0693090780709253
O 3.3013938715258595 1.0834391968909574 0.9179539550749066
H 2.4294328348291687 0.7971795324752493 0.6624466907184203
H 3.2304068910813495 1.3258397007713505 1.8229441372158708
15
5 randomly positioned water molecules in a 5 * 5 * 5 box. No. 396.
O 0.14769428167794751 2.1578065407499274 3.4757278466663726
H 0.5213947960645117 1.2089498564598282 3.433815083458234
H 0.5765809344339432 2.66900943164978 2.7867969450810515
O 0.8998774665024356 4.4757817236303685 2.661292475929204
H 1.7593735958304253 4.074941229315848 2.725971666029318
H 0.6386950100527473 4.498014116547502 3.539168181149877
O 1.5902121549614379 2.4005207886968765 1.0207768349559998
H 1.4984265458989374 3.121363957974586 1.62840127632307
H 0.8106936280295702 2.3779015884439882 0.5248742086925473
O 1.925537842013555 3.115936353624532 4.390668599769104
H 1.9267986698088626 3.002508582711326 3.431709321515687
H 2.2857120590952387 2.2689527062866217 4.684511485244154
O 3.6299347493794527 2.655792287301066 2.5822178798082795
H 3.1276927556347163 2.7195790713154326 3.4056060840159526
H 4.3427954600089915 3.3518036456186557 2.608079431359329
15
5 randomly positioned water molecules in a 5 * 5 * 5 box. No. 397.
O 2.597425050751316 2.496266461797054 1.6925458174425652
H 2.4200085355938588 1.5820700211941248 1.6112359735951984
H 2.4899367808699386 2.8723735580656746 0.8561306769565411
O 3.165460119181693 1.996565589138735 3.5826047457567234
H 3.217305034922288 2.0286280841394437 2.6299015950234965
H 2.320478013941306 1.6757682507305702 3.7759845325333035
O 1.297409539985478 4.7854231560665195 3.9120232773199772
H 0.7050076856472478 4.440627277163965 4.491285928976088
H 1.7275649223867777 3.9946137025382225 3.598246944784133
O 4.056875414359342 0.7426213733313114 4.020984798603523
H 3.414715847379319 0.6130024580536725 3.250540348539722
H 3.593709648386477 0.4963137377785682 4.746179807093111
O 4.8382087079635046 2.5056139794026446 0.6155628939297919
H 4.833254732024142 1.7867840298509647 0.006724931008861956
H 4.623371864359144 2.116810456029919 1.4528079207352924
15
5 randomly positioned water molecules in a 5 * 5 * 5 box. No. 398.
O 3.5019462683373175 1.7722140445920542 1.3852740545485076
H 3.8552179516611393 2.6396358752371687 1.1334354378843834
H 3.712743421184511 1.6361329590690934 2.303226639343751
O 4.054978959051024 2.1849774370355224 3.9395908269937774
H 3.223318798530389 2.5151258519928907 4.2381878349521065
H 4.647850058859245 2.8692581585482495 4.213957953914895
O 3.223895911832742 0.14048239159268172 2.4011176022226777
H 3.460065276001828 0.5378994806102684 3.236748663273138
H 2.320793289873929 0.22529556177321966 2.2834977956110634
O 3.4457862299059916 4.625023488239438 0.2576708053334881
H 4.273369470882512 4.985869966759187 0.01434896629115362
H 3.6066454572269064 3.791535602164541 0.6667131942171991
O 0.916034141011321 0.7524839042126141 0.5738191853915903
H 1.7421941350010073 0.36011310495508986 0.2207445076812164
H 0.9512232600501727 1.646527311131388 0.41716324801695615
15
5 randomly positioned water molecules in a 5 * 5 * 5 box. No. 399.
O 4.269572362028364 3.445327572828351 3.028757104237732
H 3.613538646007596 3.7332261664444513 3.5573069646804303
H 4.878811661472212 4.130823816061034 3.072626126332676
O 2.02734698940462 2.4877816660090084 2.811997744314913
H 1.9057661584076315 2.104243104109548 3.6846950590704237
H 2.475127867451439 1.873633457230585 2.2895009826443435
O 2.309437512795933 0.25955552404009097 4.180583564269092
H 1.6389435458742423 0.24131687711696623 4.8882639282564195
H 1.834925763089789 0.7007883410246312 3.491512621739994
O 4.016089146112711 1.5955357898212108 2.0966373231519353
H 4.1008605817461845 2.1233918980086144 2.962888099545042
H 4.984876304678827 1.4544421679247228 1.935819474730525
O 3.258285988431717 4.905959579675599 4.489431362443369
H 2.920126257713232 4.752436905974038 3.628278270314367
H 4.183402070198754 4.561932310892731 4.468902177659669
15
5 randomly positioned water molecules in a 5 * 5 * 5 box. No. 400.
O 2.0030238230346535 2.5741383280615775 2.6838395877409127
H 2.540805031085399 2.298516950211802 3.467110896287058
H 2.5890885636411087 2.3156429710747064 1.980445647008549
O 0.8713968805039884 3.9654049135075047 2.600429818765014
H 1.6850928461232952 4.140028808059789 3.057163396970516
H 0.963045982534755 4.467218845524702 1.8584240038325706
O 1.0785899509371482 0.7920072748839041 4.116679348178667
H 1.5261129867947658 1.1238530319006506 3.3294970179651937
H 1.5197529428069663 1.1635574515154863 4.908930974667327
O 2.699828486685148 1.0742210888549035 0.8391647634627852
H 1.961272932298359 0.6193463427557603 0.39074646515549605
H 2.495340166063553 1.061864700616198 1.7907059997763362
O 0.510300582992011 2.037932862338759 1.6280920344278371
H 0.8318481844190734 1.6426212088181895 2.437162909004062
H 0.3467595006140107 1.287652920154347 1.097362468105374
15
5 randomly positioned water molecules in a 5 * 5 * 5 box. No. 401.
O 2.270405720549904 3.624375303202833 4.102558172301556
H 1.966509943423551 3.7441458120777877 4.951318830116983
H 2.4573591350216173 2.7374374051114794 3.972337741692652
O 4.56880052876616 2.3262172390920948 2.870883598235048
H 4.1522238771564055 1.8206596860986348 3.6655982258062854
H 4.350964541494431 1.7742306965079284 2.0945312068815496
O 2.2828958116196625 3.9683418376709674 1.6298704810543096
H 1.8100327788225823 4.672045876758478 1.1910844603481403
H 3.065809021051641 4.442783185766347 2.085091815428794
O 2.6728657367251922 1.4860697295001046 1.236387467633936
H 3.3944248518732776 2.1129741211481625 0.9346242353229961
H 3.2085270266025385 0.7042072644254791 1.5182322871770908
O 0.41796684772317183 3.2217450665331597 3.292254316969875
H 1.2788175891309845 3.0044464304422505 3.363894763024019
H 0.15286639369058447 2.7699857244165553 2.4730165347084148
15
5 randomly positioned water molecules in a 5 * 5 * 5 box. No. 402.
O 3.756162673143387 3.8618944619217794 4.313998107685999
H 4.333855992607348 4.5826282970812375 4.574223405403473
H 3.30721903358407 4.194558837698738 3.536732276428555
O 1.39460412093798 0.6277969926089361 1.9336591940088095
H 2.304455728872684 0.5573017673961628 2.4080410980641984
H 1.5698325864776284 0.46880921902776634 1.0865602204081908
O 3.3830137597001135 1.7238537061292603 3.084550626826611
H 4.002045932133284 2.1896999240115007 3.626213880522202
H 3.653775713622697 1.9592763553294177 2.227609988796074
O 1.512724816076994 3.711453789537092 2.0264701956195434
H 1.9476493260151775 2.86444203178897 1.872296833504054
H 0.610077657578447 3.5685941739892524 1.896694457309658
O 4.324082634237333 1.9784490250959086 0.5096163707475027
H 4.822103307045511 2.380892832852438 1.1982962206143362
H 4.50031000633971 1.0818355719991017 0.4267206492688355
15
5 randomly positioned water molecules in a 5 * 5 * 5 box. No. 403.
O 1.8673479238700352 3.9970516534528517 1.2074546863582118
H 2.7538650744086914 4.27866682190872 1.5024224074645045
H 1.3038770233369918 4.442737299213033 1.7767166802543368
O 4.601191614129818 0.7353126026865181 2.8852268627281417
H 3.848428212998756 0.8301767445095589 2.391009878116214
H 4.4229079337776245 1.0803930770210464 3.7449474449717135
O 1.1222310565948361 0.6647283459655867 1.7175673770993432
H 1.4708684987172285 0.8045015589881669 2.5706999399786685
H 1.8005422619909266 1.1036003480406686 1.2057783559832531
O 0.09503703475439662 0.2017576811200955 4.109026865917958
H 0.918818582343431 0.3612051261363295 4.573032995263421
H 0.46034261718258984 0.2536257517320625 3.2193564134055483
O 3.680433167141307 2.673426871044051 0.6460186875968355
H 3.771467170702971 2.16278423395356 1.5321496078979113
H 4.2817598604192195 3.459633109529028 0.7340224643466016
15
5 randomly positioned water molecules in a 5 * 5 * 5 box. No. 404.
O 3.6844371337688604 1.9929759688700703 3.2391221333950866
H 3.2491151975928703 1.3761591092565308 2.656971912181783
H 4.31896196093269 2.484319912144124 2.708617723785399
O 0.3314087328853127 1.8714527978220912 4.059808045552119
H 0.41271675530870844 1.2817382962877057 4.875446846314146
H 0.3087116264281725 1.2896878355527157 3.3090471841964155
O 2.0228489783653285 0.6977452705383125 0.8285671227183294
H 1.037313840460609 0.6766006766622448 0.8970150790272519
H 2.378986945417771 0.18355623455651293 1.5527092791121984
O 2.894483922505946 3.151990161491307 4.363647337336165
H 2.5767202003868768 3.515974967838502 3.529756072565177
H 3.7437449898409145 3.569100957455205 4.46198052063016
O 2.0251586030339395 3.4175139249841235 0.6688810615115037
H 1.4841343763757515 3.2949747076378264 1.449482766352253
H 2.8130232081213786 2.9625170709460433 0.792646703897812
15
5 randomly positioned water molecules in a 5 * 5 * 5 box. No. 405.
O 0.0430934644606451 3.6859852287405284 3.275530513180504
H 0.8161342640322485 3.420512535844891 2.7393163639607163
H 0.3725210079415864 4.080004509824728 4.0916342513475685
O 4.78000249412803 1.069046183437599 2.688911472206775
H 3.8762992181654745 1.0061811395339406 3.0759173875309855
H 4.66578263847225 1.1287244632538407 1.7445790141130884
O 2.5385610968103443 1.3815280507606325 1.3542388735393858
H 3.0602721229676884 1.0588563583472284 2.071989834280313
H 2.613375766696023 2.338726499615267 1.5335781605252055
O 0.46250670320347853 3.0607254285583134 0.29667669174038735
H 1.3856607817904818 3.148289341621543 0.029657223080929163
H 0.37801447331208876 3.677750508048126 1.0368021176911197
O 3.4321433101423193 4.747721954627245 0.7643529040408287
H 3.967302100862292 4.558031838454639 0.06419379922162927
H 3.8631004520726546 4.307003158564202 1.4753089371314991
15
5 randomly positioned water molecules in a 5 * 5 * 5 box. No. 406.
O 3.381255067146489 3.3532248927271024 1.0770438413384413
H 2.767777322653422 3.9085881951428005 0.5490199257674931
H 3.8491791162616584 2.6956640726948553 0.5044148127225687
O 1.3892750437218586 0.9082148480715851 2.4613030657417796
H 0.9856260810188495 1.099401007679284 3.355228288808339
H 0.8392994812934899 0.25642086989565194 2.0422002931659886
O 2.4492336348576926 4.916264419197719 2.6329227972761076
H 2.588986204005343 4.382209810619783 1.865456011654878
H 2.547836051414809 4.340290871103751 3.3363510222264763
O 3.0941381476203826 1.0842575837525343 1.5719933042062824
H 3.8619911841429446 1.5035490856331815 1.2351219457877203
H 3.057424288586001 1.3096708676235114 2.5191906736213245
O 4.559995483641887 3.914079163455905 3.4102954345903207
H 4.594466118334685 3.7177486762342906 4.344539895223615
H 4.468219989974794 3.078398077013302 2.9325675419793678
15
5 randomly positioned water molecules in a 5 * 5 * 5 box. No. 407.
O 1.849154717878028 2.186150081783219 1.678666441909945
H 1.7117715891162053 2.7701135116539923 0.8915505449789657
H 1.0422673783815766 2.1762390092052817 2.09441381755479
O 0.6100535418090081 1.999115999695365 4.976124845724442
H 0.26541403233774963 1.343063723506015 4.326725175956783
H 0.6523097775512967 2.8218427804651256 4.518923174486959
O 4.035670718065299 0.42833180463947185 1.9285577893239352
H 3.959878541056133 0.23951577139854802 1.0395399965426348
H 3.8726829835061896 1.3649288293154047 2.029219618628392
O 3.7210358030185224 1.7653524847869924 4.211970211526747
H 4.477812617562316 1.217002477130304 4.341876884495662
H 3.840559044340168 2.336429102012188 3.4749487624067124
O 0.6685377236777784 4.668487157352499 2.422735766446107
H 1.0490742517494034 4.541962673460853 3.3079182683777257
H 1.2927831931011915 4.287267179963772 1.7717147770782948
15
5 randomly positioned water molecules in a 5 * 5 * 5 box. No. 408.
O 3.775534282187656 3.3025106861813374 1.547613572928646
H 4.0169852454226165 4.008210825122647 0.9430015777454863
H 3.6993723839174817 3.676940393373706 2.4562646765437566
O 2.9229181854092867 0.7033223649779891 4.2672745298460395
H 3.4838144099888817 0.2109909900696551 3.6670393009437223
H 3.521983051138586 1.0400492196873603 4.89687314976728
O 1.2827066683257398 1.8615689680235914 0.7219145310370118
H 0.6929881947565285 2.554251086746186 0.564564514915717
H 1.9006978579514695 2.2235097585616486 1.3058580489207245
O 1.3162246335453676 0.6265558003750465 2.644102948626398
H 2.2202518758929832 0.4683684361556057 2.5925992437959655
H 1.0229213563151183 0.06821992422395173 1.9301413215377485
O 1.2118007889238247 3.7956350067309614 2.0662815666804835
H 1.6303407812075896 4.61890844391983 2.3742817588003327
H 1.7658481326876294 3.184770971310099 2.4562094724990717
15
5 randomly positioned water molecules in a 5 * 5 * 5 box. No. 409.
O 2.0886102697513245 2.2879896134784747 1.6044844427992682
H 2.0830258645238433 1.501673993659275 2.114124182941379
H 3.057556298863501 2.3975315353043394 1.3872749775738975
O 3.2403603357164883 4.535458445061639 1.1922536233000653
H 2.896298327048066 4.0822416605339455 1.894689901990012
H 2.8806927421939323 4.117346791563291 0.4157521082278788
O 2.4912708148997593 3.3008552830172233 4.450672390878754
H 1.5970298535647804 3.3188500605223554 4.541101559967221
H 2.842550363400108 4.161467114200123 4.716046738734675
O 1.6204489623269729 3.8674213838882117 2.6984204071679874
H 0.7893308865838978 4.08483134325164 2.265959709507445
H 1.5535804673784148 4.2200241920754005 3.545680402442131
O 3.5877090524500845 2.677952718968475 3.2564488461226264
H 2.9024687901748982 2.220842303884171 3.8009774482007357
H 3.5350046352441598 3.6379369151970007 3.452442125383404
15
5 randomly positioned water molecules in a 5 * 5 * 5 box. No. 410.
O 1.2335476189601746 3.4163273898843984 1.8551882184884017
H 0.8853290967048625 2.7856540999244372 2.4817185086687665
H 1.3069108812926202 2.973724740240725 0.9969968990695113
O 4.262854238109079 3.9442205447663086 0.8738311233410789
H 3.6583080582749545 4.244603002194873 0.19722451843944344
H 4.165837873986378 2.9701128848455562 0.801722696685375
O 4.3700770676844485 3.362712740775764 2.3995984153475285
H 3.7597331268504304 3.798450882946017 3.011179496676168
H 4.985139342661733 2.816882113891764 2.981448625817669
O 3.032236847705568 1.2220010920413675 1.1134086012946236
H 2.6370534621250066 1.3462302306344436 1.9976202898162412
H 3.9895022578002353 1.0796234058591438 1.270571882223855
O 3.631286493946301 1.9472349344717654 3.5242192905473857
H 3.1755060064645546 1.1072395396263175 3.475257180835011
H 4.553858799402492 1.7303569045237095 3.6765631842201993
15
5 randomly positioned water molecules in a 5 * 5 * 5 box. No. 411.
O 1.4206901988910836 4.7059166507563495 3.517834149835884
H 1.371604096385046 3.793825621408117 3.2323461444276256
H 2.3294667597939926 4.857956837741829 3.697105567480543
O 4.339253368964725 1.3217255063199185 0.7543769213116663
H 3.7594803592928168 0.851294351734596 0.15535340357830807
H 3.8819169060635486 2.183214925050214 1.000723206552244
O 2.6110002769411196 0.31125889494542425 2.0740137571313384
H 2.654648451761967 0.9019418799352594 1.351165180083179
H 2.8202665707650203 0.8340641735853564 2.8403624183831075
O 4.068734362222948 3.816295900171091 1.4760472589099
H 3.662906353383693 4.006846644699873 2.2629950364151066
H 4.548565260938952 4.6195411782894595 1.2230710483951477
O 1.1402591859916533 0.8891078729524654 1.1384081422873304
H 1.1507080680434196 1.8351052566815014 1.2221306723349399
H 1.7656151616798144 0.6575005645309379 0.49057303798626384
15
5 randomly positioned water molecules in a 5 * 5 * 5 box. No. 412.
O 2.8796280207161855 2.619490508052334 2.466332212126657
H 3.387647164816391 3.298906907871353 2.0506894667334366
H 2.075055633999219 2.497281839592585 1.9407660243787137
O 0.7604546475003765 4.534790532974089 1.70783836322418
H 0.9128011897795328 4.850525874602213 2.5864026396876643
H 1.6011240916181981 4.493207543416389 1.263038183296797
O 1.9354459109251965 0.6001456315783321 3.1798095835166373
H 2.2518049687823276 1.3991362367710183 3.61857878942523
H 2.1229141883067775 0.8264389749531874 2.2837136414096273
O 0.2838581502812604 1.5837635804035872 4.19250955470302
H 1.054374058786478 1.3419647305126863 4.756054615397806
H 0.45871403272216826 1.2381757395564257 3.372405660078959
O 4.362828833967195 1.0099394544195501 2.6956452638462567
H 4.605603970835018 0.06065717343814614 2.5844981039386052
H 3.710860824195669 1.0760644942216595 3.4010915129499257
15
5 randomly positioned water molecules in a 5 * 5 * 5 box. No. 413.
O 4.400111863616169 1.981102533176287 3.1798502884598365
H 3.941848497179767 1.903342476254815 2.322860100101834
H 3.7084642708555986 1.7223326417810079 3.7532923380274226
O 0.5257668873166427 4.232829225526039 1.3972799914374479
H 0.6207050655653801 3.688367506376549 2.2102490738461604
H 0.02775819068870322 3.6874694430041495 0.7864269364811634
O 1.7846415471945942 1.6715505643326884 1.4304705078502045
H 2.724219712201333 1.2680779622737768 1.1629382799179067
H 1.1374642431982946 1.2053975807287656 0.9073867650186721
O 2.376072230336115 2.793027341179584 3.129035636224801
H 2.2316350730687278 3.671618035540358 2.6819044972234614
H 3.240350320491249 2.8242427431494197 3.518649488834983
O 4.027750157022643 4.156056100665154 2.234768000120325
H 3.5938824295059844 3.806054557229377 1.4746336797526918
H 3.443493659505812 3.88140567551261 2.9881015465557015
15
5 randomly positioned water molecules in a 5 * 5 * 5 box. No. 414.
O 1.6164008485453296 1.3754617771831612 0.45306203763862185
H 1.8841130757734712 1.1892380552103123 1.4154393501123417
H 1.1037065959784877 2.0904642192873126 0.644428615312584
O 3.201005807971292 1.7525925933576714 0.07077988554292924
H 3.6050536930461208 1.5496616232531042 0.9031112587576969
H 2.6199384389294895 2.543217711188527 0.22193077880050172
O 3.103891376808399 2.1179451302431063 3.08762473495484
H 3.2387901514675477 1.4419178971653033 2.4560564835101815
H 3.6360090362227533 2.883983211361934 2.6927712864557396
O 1.8644391107764875 3.6754486998119313 4.634943646151569
H 2.2007719870927445 4.551965435913242 4.4060178336117755
H 0.9688914949887935 3.804887080368366 4.82589319737648
O 4.0464535240603725 4.231016219066792 3.8224937631164124
H 3.493600079046587 4.123768021618676 3.0411742344712374
H 4.967015296746186 4.357854822843255 3.517122690767297
15
5 randomly positioned water molecules in a 5 * 5 * 5 box. No. 415.
O 2.8641949700521208 1.776032606758284 3.0092273412457993
H 3.4739331872438046 2.3155827853013697 2.6673782150977097
H 2.204310825892024 1.8237339283784562 2.377216128403159
O 1.575250798300905 4.614488630021195 2.9392784212955543
H 1.2027280053419132 3.72848621811185 2.6818855024885715
H 2.2987501579325027 4.782718929932684 2.315065752873555
O 3.523932039563134 4.038019424153366 2.9573883949201267
H 2.751583261683741 3.609993588413955 3.3188376544222606
H 4.168263921896267 4.228777525334707 3.649380016724892
O 3.102266835830206 3.7124334324472263 0.8658589077222528
H 3.0327714725838346 3.05921398529375 0.10893425995417705
H 2.3153257391417466 4.24634232882212 0.7967146781505023
O 4.882358854276233 4.062623128902425 1.3111094994463812
H 4.3583948287015355 4.523785945937465 1.9310384663172067
H 4.277848887076205 4.14806321242804 0.5144260589269406
15
5 randomly positioned water molecules in a 5 * 5 * 5 box. No. 416.
O 4.014769428870618 2.7744839059425495 3.5155953620076366
H 4.29395273832962 1.9277816963433312 3.796020186368653
H 3.552906735763169 2.571716870617495 2.7642856135042657
O 3.848799524599704 4.74235411705372 1.718743488012161
H 3.939919211580244 3.8174752208577893 2.1006921647488968
H 4.405434540978345 4.733874109137091 0.9429167487418879
O 0.8430463303601293 4.4276703174554575 2.7130809593240257
H 0.02372296348730074 4.931843252461575 2.930504936159938
H 0.48442973709211046 3.5234998591027615 2.487584133750385
O 1.7661558951731449 3.6549255645009397 3.721177223074994
H 2.6735836235197894 4.037157048084514 3.5962931602307986
H 1.8160025572858185 3.3259348972881053 4.592835127014432
O 3.5686313874798463 1.0104780794961372 1.419189816046167
H 3.056463885058762 1.3232963788088836 0.7060859906537059
H 3.301624366989674 1.424970544920852 2.2107032123896566
15
5 randomly positioned water molecules in a 5 * 5 * 5 box. No. 417.
O 3.86428214339547 4.7479173989201655 3.165825209190461
H 3.11318985193536 4.199352472863404 3.061470569380136
H 4.523562179916269 4.248208630160694 2.738864455704593
O 0.7179058748179518 2.1205841399702594 1.8372762941305598
H 0.38116832554276275 2.012800354583283 2.727215473936969
H 0.5754239593049914 1.275470862595554 1.4196467962913413
O 2.053545378814196 3.280566051088854 0.5670280838000036
H 1.268834343170401 3.745269307111796 0.3056836240712347
H 2.62336276573606 4.022037472395565 0.8243623970537024
O 3.2274239140644454 1.71425169519565 3.173921019435175
H 3.37083275923973 0.8423510304288128 3.505204159432252
H 2.358618297499831 1.620120971771308 2.6766554180615105
O 4.051065051773431 0.06669999838939566 1.2770807354621705
H 4.670409487096055 0.5345709468860821 1.8352767954311138
H 4.434020074901183 0.09590887931020212 0.43631407920455967
15
5 randomly positioned water molecules in a 5 * 5 * 5 box. No. 418.
O 4.527412226309951 1.1389502914118477 2.5792502573927627
H 3.9708116425943016 0.7680940165025736 3.2617193026277733
H 4.678579483451878 0.43375155458412007 1.993165317183711
O 1.5154050795508789 2.6285670056118464 1.0432359461676337
H 2.318223387761843 2.3227910278847816 1.335955431235932
H 1.0330052114252604 2.6820461602257355 1.8455778615495788
O 0.12722216999480784 4.578226601219926 1.0922686224294398
H 0.6693881856843851 3.8671734604848744 1.2416595463021385
H 0.339077788260123 4.9973369293823895 0.2673504471099226
O 4.3544842043850105 2.1110715116130185 3.947940458647837
H 3.7908999942863812 2.902226497129715 4.086642259241746
H 4.138730228231557 1.6537216195658324 4.779229313282808
O 1.1117756239202636 3.510815711666941 3.2495632781595014
H 0.89491840043385 4.302452000301059 2.6954086747745545
H 0.7639507564565877 3.7612525950069213 4.056466111388665
15
5 randomly positioned water molecules in a 5 * 5 * 5 box. No. 419.
O 4.786137980238482 0.398809229704738 1.0671388946501559
H 4.908727166547676 0.8334268353418874 1.8518737261977858
H 3.935792666343148 0.6877157410674043 0.7298981870965104
O 1.6835139265569743 3.4636709558473378 2.6917178782287703
H 2.5091551535145338 3.960217910866259 2.8718403037834754
H 1.080622873891044 4.165742150363176 2.936614138506254
O 2.1577023330814855 1.1349679082341617 1.8957656944572032
H 2.6679844183949104 0.3772059751892831 1.9427576023655098
H 2.5845767304495766 1.613067504558185 1.2043942915613455
O 1.1514495074955349 3.8490078354868533 0.7730714476827832
H 1.8176839106484155 3.1123201186431695 0.7959143894518398
H 1.6347659727071904 4.556907944717942 1.171236004221087
O 4.567341083430394 4.131906852747222 2.5312503402955855
H 4.408569590872786 4.433229454909192 1.6703097520693804
H 4.098464137785862 4.721317827653828 3.1314267363139514
15
5 randomly positioned water molecules in a 5 * 5 * 5 box. No. 420.
O 2.725603108335282 2.771378373522901 2.5000665754678746
H 3.2984251108308333 2.2765300316031496 1.920656024862494
H 2.9073430594808034 2.385666966272121 3.3328663330092554
O 4.039536828683701 3.7664063792309737 0.6921958016814278
H 3.1935986172173854 3.688187287767436 0.2889422639891671
H 3.889499009400519 3.636315671855435 1.6487822898046955
O 2.818166886096088 0.7903029168442122 3.2582262225319685
H 2.1511448474910746 0.14547014591202367 3.414195304953773
H 3.1038535127778446 0.5395695593196148 2.4071490181010584
O 4.519600783257401 1.8775044545525588 4.455155766704232
H 3.675778746319422 1.832375892488257 4.128863929523825
H 4.707495405482113 0.9937435738433296 4.888692198841189
O 0.710376134150017 3.8955235801761257 2.895688205580699
H 0.7778648157907737 4.044039516406581 1.973951574335362
H 0.6353965809775453 4.804349386837559 3.2004688473764413
15
5 randomly positioned water molecules in a 5 * 5 * 5 box. No. 421.
O 1.5478217649670505 3.68900992755187 2.6958452078615434
H 1.879267825928008 2.974470094760315 3.252767111429322
H 0.6794451784191239 3.852992837442135 3.045085197093144
O 1.4543908402488608 0.4100285300501938 4.1667148820456665
H 2.196877433206766 0.8361164532041796 4.541301840485032
H 1.6746950614743679 0.3625877425153422 3.24850931016109
O 2.384814593290621 2.0411520352001995 1.9533369807528573
H 2.403195207604364 1.887794025898069 2.883495581894474
H 2.9114239084196525 2.846290572724127 1.8996051331120283
O 2.5016068141253145 0.7465575133760344 0.838446010206933
H 2.3100782700875113 0.3098088676005373 1.7038139040172504
H 3.404218202881555 0.4457725061055312 0.5995448938912871
O 3.4767846685889547 3.7846639346522384 3.3626253320995483
H 4.183258785340833 3.8354312985799766 2.781218340490228
H 3.8506429568947143 3.919850015374826 4.2298473794046725
15
5 randomly positioned water molecules in a 5 * 5 * 5 box. No. 422.
O 4.042930071205495 1.6885029472468382 4.178411897208877
H 4.87259692877854 2.2742227065838847 4.088194099314208
H 4.443690838604781 0.8743047190130542 4.173404277184018
O 2.1741748086868657 4.079292495668664 0.4860349729771185
H 2.5064029296372183 4.96565982577066 0.2930637022595024
H 1.9291808231372332 4.110572744023631 1.406953596218544
O 4.784371127353621 3.452624489928902 1.5192753459750525
H 3.9067235866589813 3.5777368931270046 1.7874140090670996
H 4.9763387916724255 2.5268933119950505 1.6519878930281515
O 1.8919540690819643 1.8206140035448022 2.461752015524594
H 2.4604496501048656 1.0696493213161715 2.479514554790867
H 1.4892969282379682 1.7936313874325205 3.2956907313904944
O 0.3517848071920243 2.947369120144466 0.8973615631454412
H 0.9304951688359477 3.0632975969058953 1.6707454962996104
H 0.9079964576537546 3.2099021264546956 0.2213936236998726
15
5 randomly positioned water molecules in a 5 * 5 * 5 box. No. 423.
O 1.1282435580334975 3.9427178527625433 0.3498060101583428
H 1.8419192479224074 3.6256192881229006 0.9463406873580679
H 0.29961781223610784 3.833973858210044 0.8967604187579646
O 2.334988343648324 1.8132189320147152 1.5955764593550752
H 2.7506751287360167 1.9773712054908115 2.4443091877084475
H 1.6046298169236968 2.3852466948104034 1.4842406131360733
O 0.9944573704641763 0.6671839283349595 1.5135431456970467
H 1.4994601468008877 0.999932617739804 2.2989860276181764
H 0.12379452179618022 0.3335468658621188 1.830093002218843
O 1.8347238626147626 4.867118883181692 3.3480214785998696
H 2.2230605967748263 4.137365771984561 2.86841333681865
H 1.2132343808807402 4.365399389521719 3.953073411401989
O 3.326332858526998 0.873388480177617 3.818628230939492
H 3.916362134605388 1.642840590733349 3.5746634297174684
H 3.6006136128314594 0.5948222093534032 4.702122164851465
15
5 randomly positioned water molecules in a 5 * 5 * 5 box. No. 424.
O 0.8003909207590432 3.4998449131961857 2.3096773519763176
H 0.8857307221093259 3.683121087723406 1.4176058156068252
H 1.1909868494527804 4.282714628272183 2.677996939186931
O 2.209310069733137 4.418448396845822 4.030366693102945
H 1.7800394732937808 4.158656839777047 4.889114820812819
H 3.003739239772006 4.930622183985136 4.198684410708847
O 2.0471377139046925 1.1037200807688192 4.161077497541723
H 1.2608276373379717 0.6031085988831245 3.981097031592456
H 2.71080327892332 0.543526950380736 3.8871856186003266
O 4.0217466068636245 1.6504180967541904 2.3016588649412077
H 3.9500341152489575 2.4594442490420922 1.8123236934377056
H 4.20094434337303 1.9972411367229381 3.1311717845581457
O 1.759184924532361 0.8584675187895613 1.1659104654620978
H 1.2704619775154633 0.49972094623697416 0.3660749545418944
H 1.300588828063077 0.5101263014313784 1.91797386960969
15
5 randomly positioned water molecules in a 5 * 5 * 5 box. No. 425.
O 1.6000339664981116 2.804283528703065 1.0778873689849826
H 0.9960566108670112 3.4215783587596293 0.6740109920729549
H 1.5613998524835166 2.940151797288398 2.051603776236121
O 2.0462136703011655 1.7179172401810627 4.02513655915142
H 1.9610209327120791 2.0159146355486652 3.1307383666755673
H 1.2377076770406068 1.271211752143003 4.1377111087625895
O 4.691055495994004 4.27676475266013 3.151409646520842
H 4.7229388878533225 3.9974154543167844 4.061627914642012
H 4.4728617571808424 3.4630762734486744 2.5872968431554284
O 3.761218064177807 2.5390527881432328 0.7852781116525331
H 3.71520557348093 2.118306786291161 1.6460968175090527
H 3.460723655719841 3.417936209303988 0.8660888808219622
O 4.019559314700902 0.8288804063441257 3.719367973580556
H 3.235430007174559 1.3951459167169946 3.3999684528221654
H 3.6191004371110482 0.05509899171988886 4.136958431472635
15
5 randomly positioned water molecules in a 5 * 5 * 5 box. No. 426.
O 1.2362504072974563 3.584105252785768 1.0331635545856117
H 0.39765702225613564 3.2777863366684894 0.6585374466321915
H 1.8323626124132044 2.830966319232897 1.0834851114395376
O 0.8948478782179559 3.938852920620218 3.7336260262166254
H 1.4816479769527675 3.955439422843483 3.007040796331023
H 1.5277126861351178 3.8921548578369665 4.489725511901038
O 0.7902744172540799 1.0155073896736155 1.3171861964017217
H 1.6045059201139156 1.1452285383225274 0.8932607661270526
H 0.26313909382067036 0.6354210375690279 0.6196051535547921
O 3.530418555448365 3.9733540758132104 4.498891565585888
H 3.379771896166762 4.807068396346791 4.8908602753620105
H 3.698670738310844 4.096319174799792 3.5741923280792225
O 3.1260977807098635 1.3316702964111826 3.955533531196415
H 3.7610015155530236 1.601446040354728 3.2309459682094106
H 3.5830588322228634 1.5186473032635097 4.7513552100237435
15
5 randomly positioned water molecules in a 5 * 5 * 5 box. No. 427.
O 4.33605395140699 0.9608056742821031 2.0429372140864
H 3.4966636020578585 1.3979747446077437 1.6843197642984487
H 4.416340917873895 1.3509080324417224 2.9112183478009315
O 1.7992808586687508 2.2773270838728905 1.3554483802289163
H 2.0745016463207433 2.9824708020713357 1.8309687752363946
H 2.0404605724443075 2.600482286389938 0.5041428643504011
O 1.1872494147704826 1.8222493064172585 3.2494594986480796
H 1.4447702859153408 2.133323153619876 4.076172682283529
H 2.0001298083489694 1.4138008297374844 2.8645388003589094
O 4.487335787455995 2.919990388039782 1.4515126044363473
H 4.747332896920812 3.330387219803393 2.349536440983419
H 3.988827441739653 3.5441823209020993 0.941889217690708
O 1.041420219365226 4.287841011164265 4.167429857871564
H 0.3669383095286123 4.889790561717716 4.532063620943967
H 1.8770478332457028 4.519312084556052 4.642430161046948
15
5 randomly positioned water molecules in a 5 * 5 * 5 box. No. 428.
O 0.6685808984006653 2.479641619253355 0.6661654486492485
H 0.5625646543445141 1.6579853233343727 0.29941239151600196
H 0.4755632068764135 2.303158181058475 1.5713304204842269
O 2.225314272437826 4.003039591728109 2.784182832506202
H 1.9497472205293511 4.5767992358311576 2.080241143881108
H 1.6026000165430778 4.061523037349614 3.5024912513100093
O 3.7308476998605804 0.8092744608555702 1.3123382073296281
H 3.864903647089954 1.6680265743928895 1.8190033261901912
H 3.3850369719021813 1.0439353374077167 0.45676112047760764
O 2.830239850079626 1.9775689131897862 3.9959216685100882
H 3.617492775256878 2.580099539412899 3.9836351658624447
H 2.8201666335507913 1.3491098757496545 4.640447776079991
O 1.270297955851174 1.8542020805591526 3.267841813710129
H 1.9162494780365162 1.402695932900728 2.7284057922528673
H 1.4552632193192498 1.5377391569179253 4.12290773089129
15
5 randomly positioned water molecules in a 5 * 5 * 5 box. No. 429.
O 3.9140692775337693 3.7213752713229513 2.633876172461498
H 3.420687823629727 4.414243659354516 2.1496051558324454
H 3.471276188504862 3.551661105684556 3.498741009898179
O 3.6092596973930027 0.6508762407978702 0.8887805336286952
H 3.91852775305489 0.1403324318391459 1.5818988329280028
H 3.8518730427024104 0.2329650015153788 0.14278593538022066
O 0.4983139867687797 3.8323057098623488 3.5690082237566
H 1.4164188900255104 3.96152922674328 3.747921281278736
H 0.00443787970413223 4.462518526484024 4.1636363264042995
O 4.321084397996485 2.5345688480285893 1.1108794386942917
H 4.7939514779803 2.959047979477921 1.8529662721452245
H 4.600749147491309 2.942543778979317 0.27567031222014404
O 3.360172537781737 1.6535438392722068 3.231482371915548
H 3.2236046731866903 1.6281363724962348 2.2388861416086083
H 3.3454506437280984 0.6650625507631722 3.43275157936731
15
5 randomly positioned water molecules in a 5 * 5 * 5 box. No. 430.
O 3.2160754425545983 2.1019183185605246 0.12399765110171435
H 2.5843419024336445 1.4575912215848494 0.5681065742150697
H 2.942097730781794 2.9957098612489057 0.5234211684344967
O 4.06711215006778 0.8933406583828635 2.5643681614837677
H 3.755686913294573 1.3147460371410067 1.7643552226767116
H 4.51854736027596 1.6445497476549362 3.045956781697404
O 1.004014279307699 1.3988107903655567 0.7979806785108184
H 1.5359271950754705 2.1652401029024952 1.088604969992837
H 1.6328333921109794 0.6975252553220334 0.47931954749028927
O 4.348307319016088 4.7154171631522255 2.3605539284048667
H 3.985262620275619 4.022673315523008 2.897802960075449
H 3.924908474386955 4.762898535379799 1.532976130777858
O 0.7611098687016238 3.2296890207333515 2.9371698872703957
H 0.9497372912593371 2.9533696052452663 1.9996616837078383
H 1.485078752575492 3.8422018201206516 3.075161470213371
15
5 randomly positioned water molecules in a 5 * 5 * 5 box. No. 431.
O 2.9886865527420854 0.6743187340370621 3.7662580785781223
H 3.564406927512354 0.8735094844293428 4.537249896549538
H 3.277219522299328 1.1491549759437292 2.958958234156676
O 0.24781664953493043 4.782658909023153 3.6557105861220984
H 0.7696184055990939 4.2154732180331695 3.2033643525264375
H 0.5729139453822498 4.885152438651922 4.540385357057935
O 4.49880135036999 1.911019982768385 2.133930809307243
H 4.45240473785896 2.152279158308314 1.2647943974735727
H 4.765091794981417 2.6545177457217295 2.6167424298279123
O 0.8015940424866447 0.17213034461559362 0.9641377087240571
H 1.1015473904216597 0.5346428074702643 1.7714768839713395
H 1.2849264193441008 0.6704398703888075 0.33298456065015214
O 1.3133813594131354 0.3647017007701203 3.7227776003566984
H 1.8942669113519415 0.36863227736762116 4.583488985093234
H 1.9938771083362765 0.38913379488750577 3.019888694357669
15
5 randomly positioned water molecules in a 5 * 5 * 5 box. No. 432.
O 1.1811165652191402 3.258209447861702 1.0295705497401646
H 0.9847353832986036 3.139050529143175 1.9650627146174073
H 2.1515015493370777 3.1656962096539156 0.8947976959234318
O 4.890901551484365 4.168172600449498 0.7641728880372528
H 4.16034169558473 4.497102750201997 0.21430390382232056
H 4.865721917701811 3.194050152488889 0.6543853606056245
O 3.9876290460226755 0.9137391295059327 1.676905394434653
H 3.80398173938956 0.006610469770139127 2.105707929121926
H 3.4370201479783535 1.5974214446429678 2.103135595868799
O 3.5056197374980314 1.130974726070435 3.6809899223222526
H 3.2239263642995426 1.4342820653571378 4.519123479872976
H 2.650942221085434 0.8957385331790423 3.2348883588919666
O 3.76645643985779 4.803790818941506 1.8189605480311644
H 2.803121258682658 4.820541710160414 1.7678666367051945
H 4.029360982170616 4.1845728114915435 2.438927451761952
15
5 randomly positioned water molecules in a 5 * 5 * 5 box. No. 433.
O 4.199254168785215 3.95944678414265 2.845226082950099
H 4.068004454902111 4.144087699773628 1.9212281683046792
H 4.968502065546199 3.536008591855018 2.8886556509273578
O 0.8674782218381416 3.4098176093101333 0.31443175838787196
H 0.4657836084555532 2.6719554522866233 0.6898449226459105
H 0.4409686852088932 4.12504142224888 0.7746857637216371
O 0.930898986560787 0.5530074120642481 2.4686700422151886
H 0.269726480873552 0.49030256065690836 1.7342000031619302
H 0.504748249611538 1.0070958416982547 3.19724435466971
O 4.401740575218529 1.0304408007582022 1.7291442214576325
H 4.861661880924482 1.3468227891866247 2.5185738498284236
H 4.7750079554815805 1.6089884419700753 0.9879269604172708
O 0.47682033650719435 2.280877696939763 2.362621586177276
H 1.357539075486697 2.3130984747505865 2.0190399315709158
H 0.5026781093945407 2.8668197026283258 3.1460224004879054
15
5 randomly positioned water molecules in a 5 * 5 * 5 box. No. 434.
O 0.6846291529762061 1.984586079412221 1.7136345824817745
H 1.4664600074354124 1.921642327185618 1.2860331619030219
H 0.25870943835895693 2.768688344021239 1.3308707765875494
O 2.661059062459033 2.0328061029445506 4.228256279015977
H 2.0816354561330974 2.2228069821029233 4.997304680988412
H 2.027214161851112 1.7034906227110256 3.603265881527675
O 0.5745027960226351 4.077941299698597 2.999661793304859
H 0.6598789087190268 4.342742422020996 2.097742690593184
H 0.0029051347327612165 3.3154319640317573 3.0165899055700383
O 4.56024741150367 4.877375570968497 2.474991628038129
H 3.7000328559912417 4.885938454119306 2.905744207569172
H 4.384926709830138 4.770514008327321 1.505180258967444
O 3.794318871771027 1.4158182133121544 1.5224749938851045
H 3.392095101148204 2.2114827880906205 1.1982776925367644
H 3.3603982026577714 1.24941541607324 2.3754495298401146
15
5 randomly positioned water molecules in a 5 * 5 * 5 box. No. 435.
O 1.434718470947947 0.1986585290987508 3.5947201985776256
H 1.2371713995489046 1.1149259389370227 3.335719058045461
H 1.3784506107668713 0.2837775261451766 4.589839923587571
O 0.7503613636113782 1.3636594742465702 0.5665644323680757
H 1.0853239702508866 2.056395820592381 1.130000865273229
H 1.4114271106506575 0.5973588278096932 0.7380507528966708
O 3.3947883497470386 0.7568165498844137 2.9385140325506995
H 2.9416959039826605 1.2389828071771711 3.65961889900535
H 3.646099854186419 1.3866436221517962 2.275230688709044
O 3.6845008518823184 2.8752989980560555 1.0565222979389843
H 4.164105334641017 2.8317431982526817 0.2532636558229473
H 4.327203861045683 3.3010297456276647 1.6874156414371266
O 1.591663640673016 3.695433648118507 2.0974134589943807
H 1.3960198871096776 3.4474091977045402 1.2381828735042306
H 0.7165237346601196 3.720720013614623 2.4733928283313307
15
5 randomly positioned water molecules in a 5 * 5 * 5 box. No. 436.
O 1.8693359309060158 3.542666575239318 2.1356303677342883
H 1.5978398187188458 3.1336474397294216 1.3576225273888198
H 1.5624562229502152 4.463529049785763 1.9056725293757912
O 3.3310552637239823 0.16691417520775242 1.1090431428922605
H 3.9821006396883396 0.47221929526043116 1.7184200014557538
H 2.860896359127394 1.0324233291636975 0.9278318636588175
O 0.5835642343619318 3.981016166339291 3.2691250170567088
H 0.2937142645498493 4.714156266079043 2.7494867357504047
H 0.6551462444046254 4.342547593423518 4.154943464809218
O 4.065186208607051 3.2452626560406994 2.216012581754331
H 4.550021675610351 4.047700490627987 2.3472426329667537
H 3.3749165539404373 3.4147156716602254 1.5283724446025444
O 2.423698954218753 1.5790870840011306 3.2009071634861463
H 3.3756660885492114 1.3824957751542521 3.408167198786823
H 2.3254791632860097 1.3914503665457518 2.288812729080905
15
5 randomly positioned water molecules in a 5 * 5 * 5 box. No. 437.
O 1.3627950890456397 3.4596581189510984 1.0934526399848572
H 1.4335954378147533 2.5316622234100294 1.3852878661679475
H 1.0501956492239861 3.4088939058863073 0.19141495711566003
O 4.3499350348156005 3.4566238357927546 1.833094120065177
H 3.643538695967424 4.0491872566567295 1.7408565160019722
H 3.942864885402842 2.9157443707941195 2.597216668061723
O 3.180773523362881 3.420158386040719 0.323556152279062
H 2.911557776857292 3.2308367306218653 1.241659407495968
H 2.4669962406586277 4.032815598275086 0.035751692012773506
O 3.1817894979090626 4.560091309317719 4.7549631669484
H 2.619557557307932 3.790427126103282 4.483197965335983
H 4.0411383599782145 4.407163368501541 4.392388805668707
O 3.5255918023318418 1.3428319323429594 4.296486357811925
H 3.8324843910469237 0.7063252975980954 4.865715455479076
H 3.3992139038575897 0.91799944362708 3.5085529204335506
15
5 randomly positioned water molecules in a 5 * 5 * 5 box. No. 438.
O 1.246505439052945 3.0538056333008305 3.872790392266346
H 1.3718517836659008 3.7326814295291784 3.182221101380571
H 2.0211710609452505 3.230928039670934 4.455701492303919
O 1.1805529584737644 3.8042095585506557 0.7253988343818157
H 0.920243542824666 3.3235720829822406 1.4847445857686434
H 2.01161856396587 4.216946539651928 0.8765989318463145
O 2.63894074996877 0.6339035131478366 4.112295801995631
H 2.27597263464674 0.8924867302795396 4.954069085327315
H 2.067177404018509 1.0983781740287444 3.4085624911870473
O 3.313364638404553 1.7533365330390187 0.9895325283460504
H 3.9613912550240067 2.5580732006058904 0.8582133212812508
H 2.4100593909198533 2.029995120812173 0.903589886549561
O 3.475497947934729 2.7957849243871524 2.91885470620791
H 4.035435729000221 3.609948059429056 2.722334917426128
H 3.4970011769506635 2.37275238090065 2.117784747676103
15
5 randomly positioned water molecules in a 5 * 5 * 5 box. No. 439.
O 3.7100849329848513 4.801075650218794 2.012157823844263
H 3.1706237167862037 4.99588865215163 1.1903634120949793
H 4.649001687019737 4.797653837275684 1.6489884948352496
O 2.0817294654407723 2.246693743439108 3.3812984048774637
H 1.702787159726842 1.5031377960943442 3.877594246468149
H 2.105044735225017 1.9788054834743254 2.497777349598795
O 1.1426813789005057 3.823995235536976 4.40801905133081
H 2.043358184860004 4.19920077990512 4.293656631454349
H 0.7147719759285918 3.9763429041321907 3.582053833580132
O 3.4201574474588154 2.359604282771705 1.5082425986619845
H 2.931848099012606 1.847716314812801 0.9575824448073785
H 3.9492554234296398 2.800270943216884 0.9357240776216045
O 1.4967714302956332 0.8540057247674909 0.9458731870417147
H 0.6780763075814373 0.3802864714195641 0.9149213062108453
H 1.4197003200113094 1.585213712100673 0.3343540370156344
15
5 randomly positioned water molecules in a 5 * 5 * 5 box. No. 440.
O 1.767457351066826 3.6559929146438384 3.689904351230377
H 2.6162823447163692 3.635427722642362 4.148110101814879
H 1.3112082881250908 4.325897470104055 4.131888915665768
O 0.04673465985990943 0.5610469176646699 3.8414759791132584
H 0.07042193969586635 0.6485113548170878 2.88607513177354
H 0.06590173293796041 1.391930669981262 4.172213329621605
O 2.6312315723124273 1.503952291189855 3.4375244821255917
H 1.9582277029601163 1.2152569020671349 2.7701750758685124
H 2.2310449248300426 1.2338222524664442 4.252007774991855
O 1.294074303127034 4.159009146242503 0.5214944778968178
H 0.6366396743174096 4.074626796381836 1.2653973381464516
H 1.8638286018364176 3.4808654040911304 0.5665660069880974
O 3.8114709401025433 4.2265354341305725 2.9972609414148863
H 4.603394591931943 3.9689459907319287 2.7084118186712556
H 4.021574734694402 4.478886177008281 3.86477880854148
15
5 randomly positioned water molecules in a 5 * 5 * 5 box. No. 441.
O 3.993201139127664 3.538047442785421 2.8283421785595477
H 3.3365436891771973 3.2458959225576893 2.2236508512077933
H 3.500117485737926 3.5685057958091635 3.604025357726555
O 1.984477805382674 3.913565582449809 1.102055503880743
H 2.445784093911044 4.011425079461332 0.29171081193761406
H 2.135522272388904 4.741081419477654 1.576616219347866
O 4.1257847673060395 3.5186830171993138 0.4889848262438107
H 4.944364511196443 2.9889524364266946 0.44547434560871424
H 3.5304525568655754 3.010388091909801 0.006116349814424438
O 0.9405622965460603 2.44875066650505 3.514020677118768
H 0.7957776805543212 2.24272823256351 4.39304351013375
H 0.2869626441239854 1.9372405217269122 3.0676290509834834
O 4.11498178948798 0.6233263050891186 3.2263608543009874
H 3.3081420051233144 0.4028048926146769 3.559491075562077
H 4.563404710057274 1.0509119218950962 3.9707023658343004
15
5 randomly positioned water molecules in a 5 * 5 * 5 box. No. 442.
O 2.8045292550616585 1.6918507054194771 1.6898699401141632
H 2.9877093989009493 1.154854017916438 2.4326496372031183
H 2.9678729222079014 1.1228914655990958 0.912967131766532
O 4.444886013022045 3.1295075386613496 1.5595793365981259
H 4.942476364695398 3.623707193149701 0.8141005555223364
H 4.35032774092952 3.787065152700972 2.256453793042699
O 0.9209209535405949 4.988620741600546 0.887029613523535
H 0.08059246049173963 4.7609565570149215 1.2006256556809785
H 1.1079711248115098 4.559308303060214 0.0016184206065872342
O 3.225041047516513 4.341185534368332 3.783160118656163
H 3.6499253622743657 3.8466905879460036 4.407407788842631
H 2.378184964259228 3.920259462527046 3.713268973527691
O 0.25279971541718016 3.839000262067271 3.6477307639918384
H 0.29982939465343095 3.000032331311617 4.122046731246766
H 0.26996086265718094 4.500668563939787 4.328307146144791
15
5 randomly positioned water molecules in a 5 * 5 * 5 box. No. 443.
O 2.545131832295401 1.3007691913084285 3.90767938386199
H 2.873269857444221 2.1959190477113704 4.094471490428987
H 2.187170661116334 1.3895715845517569 3.0558234776715985
O 1.8830621133111747 3.955805874105872 3.251440700988111
H 1.2483864857958367 4.487016043325699 3.6855247995959277
H 1.9859960921443411 3.1770721313976993 3.80815672575286
O 2.5658599803961595 2.7865805144283193 1.2880266892537873
H 2.3924390178353905 1.9161672231596933 1.5860012829952
H 2.6995250381030966 3.3577559287484244 2.0410814294557347
O 0.1555920720426568 2.791138741344057 1.0684983598924869
H 0.39505945924403757 3.242608611487063 0.25373357894471904
H 0.9872155340109084 2.8438342744300003 1.5860967961526802
O 4.085673781162757 0.9341980602595534 3.6597821039662826
H 4.291022100209686 0.8993587531062417 2.7028903510378393
H 4.901304199366601 1.4341148829467878 4.037692381023962
15
5 randomly positioned water molecules in a 5 * 5 * 5 box. No. 444.
O 0.2700453972768124 2.2906285424416195 1.0075185754219622
H 0.7052012726107015 1.986776887167781 0.17240742584760382
H 0.45927393794359755 1.5902716203159963 1.6315518689180308
O 4.001906694299965 4.220258729424889 2.8714093157302836
H 3.874632747148147 4.828606876083115 2.133645786686353
H 4.40879215416593 4.839971988573635 3.561442723481887
O 3.5543180019730287 2.4192639539074157 2.15514442939742
H 2.841575061769996 2.7787275298524317 1.6203002403145685
H 4.302780764061188 3.0666226797787166 2.0646642654114613
O 2.102363804982736 0.8382456802765664 0.8943466121866611
H 2.3743814439915254 1.76582949923139 0.6478643699733402
H 1.5960935943926686 0.9968394255088311 1.7187767113697743
O 1.8172063476016769 4.014986607326306 4.133113461084939
H 2.6063691029809397 4.441860440909459 4.393268360717897
H 2.1870196936283977 3.138583123952687 3.9370719883766694
15
5 randomly positioned water molecules in a 5 * 5 * 5 box. No. 445.
O 3.1597686954383275 1.8062540103690128 3.1519796986752784
H 2.4660596085953967 2.4100541085530915 3.101659869913548
H 3.855665327328843 2.369454968469183 3.479857359287899
O 0.219147181591538 2.5119962812550716 0.48672047631636517
H 0.6451062070956732 1.6124278418981315 0.42195642384113874
H 0.5596126264682777 2.8355762263200517 1.3031699329361124
O 3.7727688345027928 0.5379677232667274 0.7487663910736481
H 2.8237942509662455 0.5319977733741579 0.9967853162514344
H 3.9980752200176206 1.4282933274699612 0.8980372788482379
O 1.9756303464415876 0.8141479424353698 4.04590834076295
H 2.159376809660783 0.2987934635486985 3.337264259308701
H 2.47030598489578 0.4503050412041385 4.744023627479756
O 1.9423239709148943 4.396430238867625 4.41465288555242
H 1.0375464861503056 4.2067310183176945 4.175569454358695
H 2.2962646172586005 3.5561037484308793 4.669657526666247
15
5 randomly positioned water molecules in a 5 * 5 * 5 box. No. 446.
O 1.8662520825210738 2.7139069134216696 1.3822586684896998
H 1.3516404631547216 2.7487018402730095 0.5376376794999435
H 1.2142780108193416 3.1521838391723276 1.950969952021323
O 2.040465210616601 0.9350766953817408 2.581745324542476
H 2.791761845209477 1.0849419380886998 1.9354433953848997
H 2.409892458355615 0.6378135278020476 3.3885445624965107
O 3.857855224873962 3.038400624299522 2.199086318538766
H 4.181275847509271 3.0788090415940967 3.0762866560112485
H 3.099088597136515 3.5761252427591 2.177628868913989
O 0.26785638447615945 1.8849162726550617 2.286485988754556
H 0.6288882353803079 1.372351105925286 1.6366477566138666
H 0.9730839016853912 2.2221956915833716 2.8356810406575845
O 0.3663294304447645 2.5919466445712507 4.280209657396647
H 1.1395535230881966 2.1330696990730136 4.135161889549866
H 0.23860881622147218 3.1375713950145028 3.472064994390547
15
5 randomly positioned water molecules in a 5 * 5 * 5 box. No. 447.
O 1.056159745884132 2.714847031286889 0.5726922881896329
H 0.9706684007025426 2.8440775854080895 1.526025136232053
H 0.16946788554553194 2.5930562671424005 0.34910246962834296
O 4.096211884689319 3.186116074415996 0.5787658459608247
H 4.252908328658657 2.2707168863563973 0.9521286649318245
H 3.195824888903939 3.0796129923603717 0.21321162767159219
O 0.8771346468204144 3.976761758101019 3.9940495725486542
H 0.45904289459046904 4.795657360198853 4.097186164548056
H 0.20191714716898423 3.4109687850419466 3.619792669040567
O 0.770532327495968 1.1746036980714387 4.874242152023902
H 0.5882886515299455 2.0503095424516427 4.577757796159949
H 0.9058326148347187 0.6859113550073105 4.034355139429601
O 0.7000390873676399 4.537224385799298 1.1641634932250344
H 0.2331630387317542 4.617296019464559 0.26295020660044943
H 0.26505224654258286 3.8140316124748814 1.6582550987759006
15
5 randomly positioned water molecules in a 5 * 5 * 5 box. No. 448.
O 4.729062271541697 4.886946381901672 3.015501347039702
H 4.1583865996720535 4.260268582867266 2.5361594849203466
H 4.361362583835565 4.916243252934524 3.903900396921218
O 2.5778955993440116 1.1199009091784489 3.0678256516520133
H 2.2465722466940505 1.3904904361342008 3.874067381242578
H 2.5723274824447118 1.812740817323619 2.474830522194746
O 2.5645633590023325 3.944566582059796 3.7498267054133705
H 2.814372709423907 4.453732325732007 2.9046027525733296
H 2.8352986428325435 4.491202159356709 4.468582817778258
O 2.8275309824957744 1.8417872838666378 0.5529879320906306
H 3.5844520299452194 1.4553324376847119 0.17845308654937286
H 2.3981146736302597 1.0226274144901837 0.7873116781668204
O 0.82665724863413 4.403165747324261 1.7587151591155648
H 0.7806947141665046 3.5178460336570874 1.7520827323551715
H 1.6007731112596577 4.630283022159201 1.2147512098446975
15
5 randomly positioned water molecules in a 5 * 5 * 5 box. No. 449.
O 1.9530278860522583 4.494853715849809 3.0029073882753727
H 2.471258215032366 4.810657676069893 2.245950866158823
H 1.6393470352544934 3.6703223317389626 2.6524637330633634
O 0.8266701106379959 1.5619435362120475 0.8834981211827214
H 0.9495680152143948 1.4656584309855933 1.8583889616548577
H 1.6014892744839853 1.0448606599215668 0.5144670926167227
O 3.79903952078728 3.731889355151561 3.5422939041468475
H 2.7931714855991627 3.6465762879233354 3.58556592877353
H 4.1240241544942915 2.9380724239891416 3.872692607994075
O 3.201224209811779 2.912012108192731 0.2903630408866359
H 2.973405188097832 2.749129584676094 1.2682396596591814
H 4.164995276901243 2.9627140370733187 0.2847909915765172
O 4.818215341321343 0.24255175698031095 3.3054168257766077
H 4.505343176602425 0.7950786304297199 2.593485453488112
H 4.229131954994483 0.5050714614440666 4.011392049535905
15
5 randomly positioned water molecules in a 5 * 5 * 5 box. No. 450.
O 2.3808332492285738 3.1131308330848038 1.0319851814761238
H 2.6715589824149486 3.9834919121670453 1.3466549396141092
H 3.0738024970183155 2.840879280569464 0.4229104818091929
O 0.8202269744021728 3.5033664648743166 2.051552801156184
H 0.45036993600452346 2.6611560518196087 2.0550108830795293
H 0.1623381162505908 3.95762643996862 2.499727323954592
O 3.4944018822178213 1.8830729237607158 4.195218807895169
H 3.2752098977288635 2.6496669141793383 4.728875448381718
H 4.325328167216677 1.6465837770857858 4.505124516877486
O 1.0319175100688016 1.870200808232923 4.0022273883269825
H 1.6016855637366412 2.5169179235443155 4.388498677239555
H 1.0925598582072675 2.0800085322618016 3.0209194926056466
O 0.546972102166769 0.7460913985147949 2.4465515033410807
H 1.5109214038971182 0.6565501282694886 2.530402467579791
H 0.2733136541205904 0.17870116280148518 1.7355228997464787
15
5 randomly positioned water molecules in a 5 * 5 * 5 box. No. 451.
O 3.398163025786291 3.5214853956884133 3.8375321236783693
H 3.764311403278941 3.0303072636827144 4.586645610136938
H 3.2471028041085854 2.9616036960453482 3.0731437213831656
O 0.3559979653730744 2.431887303710354 4.2651512821095805
H 0.33158408404927436 1.6532303941668969 4.83225306778537
H 0.9946016710818412 2.2064933971929186 3.601432338465387
O 3.9599330427985144 0.15888071423887873 4.158609456889763
H 3.7565867329483806 1.0018961231830494 4.40267490412112
H 4.977646880564891 0.09672441763987294 4.191977955015633
O 1.575552304261452 4.0833269595242925 4.314203227782458
H 2.1822782045270426 3.5714773945957674 4.864567518458713
H 1.5269604069547618 4.892633965878122 4.806575112456296
O 3.897158308683206 1.1904769877238324 2.4215032045947886
H 3.3864418650851764 1.253572052497206 3.253365531838803
H 3.5487101225719417 1.9320523667889482 1.8817989387291165
15
5 randomly positioned water molecules in a 5 * 5 * 5 box. No. 452.
O 1.6257240753006235 1.0564123310075697 2.6435312620531604
H 2.1453518270274996 0.9819921682687103 3.450969559326533
H 2.242361752529922 1.0619560280587637 1.89431485702079
O 4.524296758493333 2.258138758512551 2.0144973404517663
H 3.566777949770251 2.3480181330720575 2.4086654655809743
H 4.334891601836201 1.9793019612159966 1.1485751617415283
O 4.028662970480937 3.9748909689670735 1.3656812243530774
H 4.358759146198405 4.213521889160016 2.2118427931752764
H 4.61259428776079 4.36941709961151 0.707422216578423
O 0.5137177234778845 2.0108271346345514 1.8479228218348653
H 0.5808471436918329 2.556538165506884 2.653795035603995
H 0.4416337716213497 2.639632417347924 1.110451169439034
O 2.3216692865716473 3.915893152308731 3.691087114993761
H 1.8691488817289421 3.5471657020849703 2.9357086090865137
H 1.7942057570508398 3.5705948798727003 4.422675303808864
15
5 randomly positioned water molecules in a 5 * 5 * 5 box. No. 453.
O 3.8026109040068405 2.8177893523761792 2.6258574629280633
H 3.7023392817600342 3.610665837295807 3.1087926648537705
H 3.962018077482898 3.223061464173895 1.7744120249392996
O 0.52225540444235 1.4304588461480938 4.180968271811059
H 0.28225840126663504 0.9290989111727153 4.93409809359474
H 0.07808372347724579 1.0339097523526237 3.5047650990118537
O 2.4315860778109077 4.696672351542927 2.739583934748611
H 1.9768805488283359 3.876054903688468 2.5645137951024997
H 2.888146464645802 4.976310248040066 1.9447118413533926
O 0.9789792748626064 4.992293108978455 1.0541707343029145
H 1.2039796124831097 4.441655139366149 1.7878597821988589
H 1.0574649193057297 4.421040565015542 0.24850929685755596
O 4.2108151881147124 1.1169433667981137 3.5157135479022195
H 4.366146606257378 1.0584717214342554 4.491954440394855
H 3.5875106967847357 0.4898669404164333 3.306942625805782
15
5 randomly positioned water molecules in a 5 * 5 * 5 box. No. 454.
O 0.7972144686974475 4.622652318568889 1.99294501544464
H 0.5228726766363174 4.992014381474113 1.18368170687136
H 0.16944578502961338 4.951759020122057 2.6540611584670177
O 3.0445460351246894 3.4974824152401855 4.444381346386289
H 3.9058896577442415 3.9732397666999777 4.24889268510646
H 2.46105088028766 4.130709302348249 4.857895283701977
O 4.571580976302444 1.105148973872826 2.37685502326308
H 4.827136476474744 1.0381216185761715 3.307013158609453
H 3.548377142856388 1.0219158864249887 2.3711588029065975
O 4.286310056492202 3.9687732475486888 0.47928544733459255
H 3.386375203556796 3.80018702152114 0.14177639964595512
H 4.108323625921233 4.64581517623377 1.1955308145251995
O 2.4403610882129834 3.6021608464407606 2.684712561817718
H 1.5866748573779736 3.988448060173233 2.7164261834085583
H 2.7311110889809096 3.7520400866392616 1.7790629718584872
15
5 randomly positioned water molecules in a 5 * 5 * 5 box. No. 455.
O 1.3305283510329635 4.2248207603968675 1.7263359377032994
H 0.5280897920380283 4.459546606130409 2.1271899655562425
H 1.1052504609135128 4.007364094718393 0.7784707304419509
O 1.2740131034994562 2.6226052726926414 4.566273062915251
H 2.1064722610750617 2.8041028074702274 4.152041438595699
H 0.7136276278986782 3.347037016172111 4.381375103244571
O 1.4895875265047436 2.569265981322568 1.9989723514373585
H 1.9135055863730226 2.8231197999154096 1.1689176030004431
H 1.6857956377862289 3.3536894357457934 2.545700557973942
O 3.295734333743423 2.30574855333776 2.8745537761043916
H 2.967498534312813 1.8076905078583647 3.613636968758435
H 3.418662373764134 1.658572941360676 2.1903983467852397
O 4.51549654689944 3.3458468206165755 0.8291277043993917
H 3.947765560455683 3.5261867551227453 1.577058764930456
H 4.0922218135677255 3.5624564558488903 0.047007723605460905
15
5 randomly positioned water molecules in a 5 * 5 * 5 box. No. 456.
O 2.4692852079895418 1.8214095310000689 3.1126311305620518
H 2.13832747129031 1.4634523831230488 3.9653515299455044
H 2.6443625829368695 1.0751565245282462 2.63426113001878
O 4.00818870378355 4.274710587443593 3.077766152228439
H 4.39372962375906 4.479802611083785 2.1799052648129305
H 3.3891422910797093 3.616298713412206 2.984936302434436
O 1.206514135653138 0.6164338085830773 0.4224875753459145
H 1.6053301675873062 1.4943244565974876 0.5569152406687478
H 1.9598152690882897 0.007832974682227434 0.644093177880986
O 1.351657283617162 3.849965945455067 0.5797787432351376
H 0.5189562116162751 4.257156245407411 0.8170850579657996
H 1.9704130803697717 3.9543773576572465 1.2885764136698583
O 4.6950703205145885 2.4385459783135053 3.839416541939827
H 3.8758286129513966 2.592485084862635 4.190396349888093
H 4.555757704353109 1.6532597289385644 3.331153249966903
15
5 randomly positioned water molecules in a 5 * 5 * 5 box. No. 457.
O 1.0128797278368324 3.7926817066882497 1.3481436870717327
H 0.5209167840183984 4.136365832410572 2.05376883184022
H 0.47554701718974024 4.15974469502609 0.6085884273180734
O 1.7919381567356614 1.587526277903043 2.5021444895036575
H 1.3396318712455169 0.8471433776122256 2.0645601433440697
H 1.9184259450788106 1.291908277042482 3.3907727292161542
O 3.227713058511426 2.195447256111862 0.6889988152998711
H 3.5831546510562693 1.8638624648982667 1.5109986588105837
H 3.8613563516517484 2.8294884111978904 0.39948916178294874
O 3.5140138715089098 4.056330369588545 1.7750188125291522
H 3.0052057007630064 4.349773973462958 0.9402655290669686
H 3.034520197760935 4.436691848148153 2.4990673467808553
O 3.3295146173257835 2.1767332028397686 3.1469506007013033
H 3.3232367794128663 1.210133041391241 3.2412714881521527
H 4.231583423584585 2.3712922647981385 3.151065324393464
15
5 randomly positioned water molecules in a 5 * 5 * 5 box. No. 458.
O 3.474438379828722 0.5279965789743257 1.7215019209509774
H 3.199019174661305 0.19090617844821933 0.8394661888669905
H 3.392952022867755 1.454979127242086 1.5506921444428663
O 2.7395363975130502 4.8771142023875855 3.555506867720969
H 3.0325062336442388 3.9892094510400513 3.8710491081720138
H 3.025554551033045 4.901617452686083 2.637814849579369
O 0.07248906142677147 0.6638383535484449 3.7454732132747286
H 0.030639809320587352 0.6311337116585113 2.7717248134574604
H 0.8425071498938503 0.19591690470509004 4.057813641986803
O 1.849152132330102 1.7487090236229812 3.4020501092887634
H 1.6295563119279695 2.637136831155458 3.7462489215445274
H 2.4606159415836317 1.903243336352246 2.7084727048781976
O 4.960409075514766 3.4693995083357345 0.915464172900583
H 4.5036427843807445 3.438332417168165 0.028597906163231324
H 4.39211870784447 2.861257561278239 1.3923703459214796
15
5 randomly positioned water molecules in a 5 * 5 * 5 box. No. 459.
O 1.2772441441231979 1.7039981052614288 1.7771737313515539
H 1.491747518808183 1.659519670295081 0.808488046685413
H 0.9380931193368431 2.575948018479309 2.00632277898487
O 3.523087321937986 3.7271801882651134 0.6923747657090273
H 4.284819258362846 3.619847253552358 1.3488731533921245
H 2.682388204131245 3.615387714592131 1.1859863560260768
O 3.7295475040968835 1.3890112843305906 3.690997242426845
H 4.390405220893511 1.610966327472359 4.339712978838512
H 2.887146152343802 1.8445587041700866 3.998293362265488
O 0.41400800889706546 1.865994513729789 3.83804374522433
H 0.250041201435026 2.482074600758449 3.2002172534585585
H 0.18973402746011442 0.9596724974497404 3.45320824933259
O 4.1746614666497175 4.241048954456464 4.441096712335289
H 3.4744313232333246 4.743579531473116 4.073663019145483
H 4.720492873235533 3.840704235140962 3.685325600714421
15
5 randomly positioned water molecules in a 5 * 5 * 5 box. No. 460.
O 3.8438065478055297 3.8915094152433993 2.7272193358945227
H 3.613849856471796 4.747304564208764 2.997617735826272
H 3.5692780379192204 3.9251695632859946 1.817422271281108
O 0.5216290483144631 0.1958465567458717 2.4517807877281745
H 1.4296199130196032 0.41430961416800594 2.4938678047086427
H 0.13264145667150606 0.850343435859033 3.1512584235853813
O 1.021370383062476 3.014366249699063 0.2722970429483218
H 1.9215582312555892 3.0811504019424723 0.4444183834162475
H 0.731452660673385 3.9008893343299316 0.19553573231314794
O 2.640218275201121 1.778612274394387 2.517597217386159
H 2.1632265310441467 2.137148492755362 3.2563931076043575
H 3.2449267813640255 1.1289520515051108 2.890012372023264
O 2.082984632790934 3.642542509977375 4.372920422016253
H 2.834565744903135 4.102050468477672 4.85641008072392
H 2.1006261658950436 2.7154401401747847 4.623706093358782
15
5 randomly positioned water molecules in a 5 * 5 * 5 box. No. 461.
O 3.0053321062475433 3.8070878915419555 2.688951762736282
H 2.752849435907117 3.3133587441918486 3.4979056325990396
H 3.176087772140152 3.119127186669419 2.0201369222284202
O 1.5916145111994888 2.9386219032074514 2.1532577116229246
H 1.6252070918437647 3.5696455488878676 2.807511456878602
H 1.668092357387716 3.5336553487493085 1.4333852745189355
O 2.078943039011119 1.6786578554381737 0.7379166885767763
H 1.3270084360530903 1.097371585281063 0.7200082401786023
H 2.181233997282508 1.9656315862304488 1.6637096637014317
O 3.2388431007013505 0.3773177651555576 3.3153861393152404
H 3.4934452720500455 0.88018012452331 4.067225845371003
H 4.0353309778226345 0.26818059180021114 2.881716702162445
O 4.677553488057936 1.6637047063696064 2.5241634135177335
H 4.633370107083403 2.5560519510940045 2.2345449387397798
H 3.8540549647407474 1.517181081632103 3.0672222457806635
15
5 randomly positioned water molecules in a 5 * 5 * 5 box. No. 462.
O 0.7426058016516102 1.2579480729529202 3.75688979771983
H 1.503823099875123 0.7897964751213109 3.4124838377409117
H 0.4974992790665666 0.7047312863506866 4.46776364398729
O 1.786000683681832 1.7615531964818887 0.6553389323339864
H 1.1671730373530433 2.189928179340328 1.2572589300425463
H 2.067355904193549 1.0167471696270847 1.1302094776478568
O 4.215265968384413 2.2681609805578526 3.6864803249333673
H 3.5070617940210496 1.7867888641889615 3.2832364114841477
H 4.595178380172478 2.7252006216287974 2.9524154653310517
O 4.178602631027195 0.30392253351334997 1.2529710380313075
H 4.35082272700134 0.13220745319797675 2.1870213303420996
H 3.331330834587851 0.8547474387743731 1.1516897850915417
O 3.5670239533783716 3.506095486723911 1.0230922163599854
H 2.6886657448938407 3.844690962910329 1.0076682617849397
H 3.840340376213797 3.568080961221162 1.967590890578432
15
5 randomly positioned water molecules in a 5 * 5 * 5 box. No. 463.
O 2.6135556680303926 0.10654367880363669 2.5541332052804773
H 2.6065122136820813 0.8331439992819696 1.8491715794634087
H 1.9868816009771442 0.34420445410807327 3.128044044384946
O 3.705532813429669 1.4250246763372498 0.9151331010508579
H 4.14599201530183 2.299538118194015 0.8696068045610597
H 4.090979894225895 0.9173873618067275 0.1866254374698062
O 1.1468014563166329 3.319148136319905 1.9067332430811441
H 0.9310910855921573 3.7914903337084915 1.0796746541735356
H 1.0357968414761725 3.890795436655753 2.5789426027600877
O 1.0141380420852393 2.127035065326401 4.087410507981129
H 0.943128748529197 2.66198153378623 3.2918823168494544
H 1.96568875229921 2.0776671759894483 4.248277985768991
O 2.245374568465021 3.5091295341393773 3.806951780356411
H 2.9136798232682226 3.216392431664652 3.264322257426974
H 2.1242213621736457 4.420124102182234 3.667309777866479
15
5 randomly positioned water molecules in a 5 * 5 * 5 box. No. 464.
O 3.7136910088399713 3.745174981255671 1.0560476889252528
H 3.9032165516572155 4.544377931230295 1.5798172747854622
H 4.501669315064489 3.380712740078531 0.812371125738554
O 2.2174364231432646 2.053787207975612 1.5747155910235682
H 2.094132484038214 1.3600797280134693 2.202130890061575
H 2.873962112205829 2.6954527824661745 1.9497810079204434
O 1.07585409583979 0.3576315602055946 3.87385041950978
H 1.8555608493199345 0.9940159428924346 3.759320382424301
H 0.7344063540170052 0.7058470801266232 4.729150343817952
O 4.121345516951304 2.409348608834836 3.6269190301132106
H 3.53153019531709 1.695878812477985 3.5067913944852886
H 4.60235361884909 2.0887033459730038 4.430277945486685
O 4.453664204242719 1.201945310514407 1.7018229968692666
H 4.958126857563448 0.7991949774040488 1.0624801277759617
H 4.495171071448958 0.6924167412530204 2.5400955516417194
15
5 randomly positioned water molecules in a 5 * 5 * 5 box. No. 465.
O 1.8969173870508977 2.5457789669954427 2.70316562914321
H 1.4400070482442897 2.5476590488748587 1.8403901937281073
H 1.1622374785554537 2.836895058071213 3.289141343568664
O 4.050307074940379 2.812687695602021 2.0139715843062205
H 3.775698289230876 2.221717236303667 1.3420505521145487
H 3.7927540809362816 2.288666617494389 2.7212081384925004
O 2.064939064308264 4.494853440022869 3.8336900239422027
H 2.0703863587871996 4.685821749131144 4.731798593211747
H 2.971187341801246 4.307504327888652 3.643556841653036
O 1.9393753104803835 4.4635223427561 1.9038091619106607
H 2.185822011647334 3.773476109272141 2.5806652883233037
H 2.6621405780118432 4.985862010132904 1.8670198288599846
O 3.5710516763287874 0.009428869247283811 2.40472015658664
H 3.8474779677248327 0.8827152144783584 2.750794857371457
H 3.2850203558067377 0.13328931511936115 1.5087703553844891
15
5 randomly positioned water molecules in a 5 * 5 * 5 box. No. 466.
O 1.5686024390580267 0.8640865752448001 2.7283164105822086
H 0.6620355084821942 1.183760802234895 2.6938188632179734
H 1.7223420537697414 0.7557118368009536 1.7898073138527233
O 2.000019494930908 3.696296543056566 1.0789837035823275
H 1.8313396701548372 4.344022040173473 0.3337022084058351
H 1.9208987551633485 4.308186533431478 1.8113270746710792
O 2.0754859465393265 2.2851273490880346 4.3791965523844105
H 1.8290014361446174 2.519567478479606 3.4767671113310583
H 1.5742999772571724 1.4960032814202067 4.579015180975656
O 3.8968263102169938 1.1899950270560917 3.828131260900352
H 4.177935134981534 2.1077803845383825 3.8630468516738117
H 4.656451639344143 0.640594508691012 4.010511128303429
O 4.407316142299468 3.7517501089270278 1.8913778116261133
H 3.8628895850513514 4.181317941699495 1.20530625187804
H 3.8730952053775707 3.9234981774995346 2.6756005713849023
15
5 randomly positioned water molecules in a 5 * 5 * 5 box. No. 467.
O 3.3789569260450336 0.824852882832437 3.9029464872622417
H 3.5935005430955727 0.969777113189552 4.794347083759337
H 2.8142370206573055 1.6102853893605267 3.725442159057037
O 2.9565291480110316 4.2390197830417335 1.080753210497557
H 3.6360911391263757 4.7159355676112815 1.5873362132685145
H 2.7370829062164 4.929788420027324 0.4893537800003729
O 1.4611236717875786 3.4463289117533273 4.703925204403057
H 2.0202833048581033 4.188113099294333 4.810872668141595
H 1.9477904825334522 2.802971585262835 4.2138390084520925
O 3.3153109384798665 3.4978082504605283 2.778882356233432
H 3.9885258675778505 3.3725004835712413 2.049628059927194
H 3.6675192318916934 4.259441245337017 3.323618605279945
O 4.0322442359608335 0.2547257754644672 0.5470783885221375
H 3.958383506774735 0.4809607200276713 1.4842511734179675
H 3.4551656132231763 0.9289332154546043 0.18725531123774614
15
5 randomly positioned water molecules in a 5 * 5 * 5 box. No. 468.
O 3.707426646728596 3.6700940996274807 1.1376398043401248
H 3.9069698446745496 3.3062252526725717 0.21015591731105898
H 4.4002376895545465 4.3980168753668805 1.2643052348538544
O 2.0461297041360185 3.350510742470545 2.224832221785279
H 2.579281936064304 4.004130281816138 2.6936479842384835
H 2.158925074508562 3.677978015073717 1.3436741280252973
O 3.953281990978699 2.479860943476861 2.410241489179574
H 4.689070944988434 2.4784780153161394 1.752051654630222
H 4.371186866296247 2.4516414936040336 3.2755831812807252
O 1.3689894176728001 1.2766183413066068 2.894697315026922
H 0.5490395629343379 1.2133355344905126 2.459196124874385
H 1.0327464895317642 1.2170173654248102 3.78214492166358
O 0.8620251404647872 3.1893326177306953 0.602486812221496
H 1.2311056478377842 4.1000654904660525 0.5931031389557715
H 0.2086372301305499 3.221902806493407 1.1877008830430902
15
5 randomly positioned water molecules in a 5 * 5 * 5 box. No. 469.
O 2.511529257613911 0.3325723495320365 1.8187989186332372
H 2.3963037941423746 1.192789843422104 1.4815731769366907
H 2.8071989284424825 0.4419491085759394 2.7340266704619633
O 1.1912020024907932 3.1978269178490275 3.322866880322806
H 2.0945360914460323 3.152951741371001 3.4821309323640697
H 0.9316197716728611 2.3026479074940256 2.8842350718496617
O 4.0564989137784355 3.5977506953604337 3.5432668227492554
H 3.4125148718534524 3.2884444037843092 4.095696739675194
H 4.623375877141507 2.848894689234011 3.429892338606629
O 1.3863996128532423 4.852562019326605 2.640008186040605
H 2.2391466267283047 4.634266677015012 2.988065925775003
H 0.9792085005024264 4.087577820247043 2.3313727019071333
O 4.344706158818216 0.46729539633609374 2.961346320567752
H 4.674097402486574 1.1016669718736773 2.485352171547541
H 3.997101292340804 0.934109278244883 3.7025008527568444
15
5 randomly positioned water molecules in a 5 * 5 * 5 box. No. 470.
O 4.594088631689553 4.062479803553905 4.936448557781852
H 4.823541856119177 3.7258263558364897 4.0834853691569055
H 4.103334121078176 4.893046572154586 4.6730352418279715
O 2.5968200616150656 1.9529967716340557 1.19790179766257
H 2.2209165165164317 1.5376348807359763 0.4748485088757357
H 2.0603603373868933 1.5123730985899069 1.943536579503063
O 1.2983352320993506 3.3264585176558943 0.8785375458719213
H 0.9983840190615443 3.6358396643688655 1.6982508303940942
H 1.0192199182593888 3.9413937447110774 0.29972883561516517
O 1.7424681212217425 4.282443554818977 4.522260023483655
H 1.6229103012414652 4.682576208817888 3.6722682695043676
H 0.8498855499242535 3.9363166802048397 4.812837841221926
O 3.257751719171576 4.759423376617288 2.3991423451840275
H 3.1368766209500247 4.253372561530462 3.149436295964629
H 2.97950876319531 4.192708021651676 1.6948687753294176
15
5 randomly positioned water molecules in a 5 * 5 * 5 box. No. 471.
O 3.188829768092869 3.1833411501064073 2.6750301085290076
H 3.8517055223697048 3.8117051719225263 2.586640086275551
H 2.553476793098112 3.6009278669682185 3.304641972460546
O 1.1340200359603263 1.8915847348285064 0.24306793842004626
H 0.9347465625289941 2.853616644942492 0.05518521491752343
H 0.8345019891581344 1.8154583490228817 1.1121170224216914
O 3.9877565662915875 2.3746785657545413 3.822099727765928
H 4.154920663084897 2.34283931315633 4.7813375854009115
H 4.17916253735345 1.4878127127644252 3.525772582480349
O 4.279983587031312 3.109271225295532 0.6726064835891049
H 3.6063762353433635 2.934131205370357 0.007664876083137484
H 3.9053851732422094 2.6312458889576114 1.4997710763256071
O 0.6322553698915029 2.1969462841869203 2.6289508248662874
H 1.4913000588878367 2.1928407443712685 2.2000176276526506
H 0.46473723313863885 2.910150234709713 3.1421812720746636
15
5 randomly positioned water molecules in a 5 * 5 * 5 box. No. 472.
O 1.9762657151171954 3.022267893669115 3.605445253750836
H 1.2791390998800547 3.047855133470345 4.262415400834146
H 1.7714217578253884 2.2849609762415133 3.0382317608398823
O 3.16567207955399 4.494036189589011 2.3772079704087883
H 3.581730709745716 4.900957985941439 1.6445268868384375
H 3.901355975999893 4.1661372085039385 2.8870205168544656
O 1.403153666672422 2.6504050015418565 1.2913333592828242
H 0.6987589889971744 2.6320229197784766 0.6366779892580282
H 0.9383243877576128 2.835803067568776 2.148105102858578
O 3.4686708456294997 2.724641792410945 3.848045881841833
H 3.680686896901876 2.243106796669809 3.049691021964674
H 3.8299369236239187 2.1668285376773753 4.565921770435655
O 0.40752743531963287 0.968011751964048 4.578520274101909
H 1.2030509977558208 1.1192607074076302 4.206365069556861
H 0.42978928136859745 0.07684411883069575 4.963088609071
15
5 randomly positioned water molecules in a 5 * 5 * 5 box. No. 473.
O 3.3749359100683773 3.801454581847774 1.5196510079989607
H 3.679484694383697 4.1763089085123974 0.7287348896513626
H 3.849411440824462 4.1268713855897285 2.258786650886271
O 1.765321595493921 1.5713294685810557 1.6165118270746799
H 1.8990470827915518 0.7692946627226647 1.1077834933732775
H 2.4718468092247363 1.5083164255436068 2.271961926143034
O 4.00808586904432 1.5632760092549514 3.455674817508397
H 4.495152828344592 0.7532203457967239 3.3134762673890306
H 4.512135148268744 2.1855633854469456 3.9689590286181824
O 4.294377651719906 3.956721062432677 3.7701860588882257
H 4.971730865046588 3.330491122789219 3.900909767541549
H 3.542687278023747 3.3797314288918043 3.5618554094583708
O 0.9564164437370304 2.9459968707128215 3.8720747598707166
H 0.584490862835322 3.4628243519351187 4.572240283713027
H 0.334977339970686 3.047096967280422 3.13635352312142
15
5 randomly positioned water molecules in a 5 * 5 * 5 box. No. 474.
O 3.8601319322709164 0.36386438383932185 1.7537460497064257
H 3.2584784007068315 1.0302642601345702 1.4572481542214637
H 3.8124929400730476 0.5535530185931153 2.7003545628387053
O 1.2279103471065551 1.3748232205149702 2.4730692766681734
H 0.2877875538321091 1.2904408261776978 2.3536350850451075
H 1.5860312021658338 1.8510533628285464 1.7476553308907663
O 1.8499504299706775 4.584039728334489 4.003072012429024
H 1.9377490362134302 3.690741254082563 4.0543999862620455
H 2.3984086811609395 4.940339392627518 4.704695814222986
O 0.4812685340535583 2.501255490232921 3.601631102620594
H 0.5070003162325186 1.5920307057542997 3.8713795865995255
H 1.4032155971558435 2.6433766417578126 3.2999367578871377
O 0.34515668665315635 3.2462656184388887 1.65534850826714
H 0.667173423271449 3.605708073371921 0.7835665942780288
H 0.9448678466845096 3.494220079269815 2.369319469792675
15
5 randomly positioned water molecules in a 5 * 5 * 5 box. No. 475.
O 0.6270186125099647 1.4731931150428372 2.380801095902859
H 0.5651705000131251 0.8443571178845283 1.7178362001480698
H 0.4925716872125514 1.0138832036528886 3.251804164739583
O 1.463067995372026 3.080191722367504 1.8253092182901272
H 2.0063417503351095 3.0132588579190345 2.707872103128127
H 2.1287987985298265 2.876927839804156 1.1267431763930271
O 4.2035283284301 0.6487867409274001 3.1737535596510247
H 4.874700633565308 0.798477249630456 3.833564036487009
H 4.662315127605325 0.8238230613653271 2.363548396203389
O 2.815550651843679 2.6065144170353136 4.0709916630654766
H 3.373979311020592 1.8558579232939927 3.776667296009403
H 3.467989987648387 3.333974238047869 4.144219839009436
O 4.055578838471003 3.8848861623894555 1.0215620108983763
H 4.489211406422991 3.349423391972033 0.40426512981295726
H 3.360029222870294 3.317235705068176 1.3916644975725814
15
5 randomly positioned water molecules in a 5 * 5 * 5 box. No. 476.
O 2.078960464981548 1.1842803734392093 1.2944553163191985
H 1.953009796099404 1.4852576324118176 2.2489846272785234
H 1.9634558446371597 2.0090204619179177 0.8195419746698225
O 3.743574051387459 2.175700185177862 3.4855054636591936
H 3.010574475031599 2.006279402232403 4.126616111110971
H 3.534648656959858 1.561864351103205 2.745903823466121
O 1.9839512723564956 4.941989910943207 1.234583727626159
H 1.3919605927710519 4.169909235487277 1.2593410431551368
H 2.4070602559209497 4.893734463366554 0.3593212227763146
O 3.413559987131935 4.7494114679968655 2.058900652928171
H 2.903698551261475 4.979809858729935 2.875522252704015
H 2.874402935134367 4.136063895180833 1.5602378848644007
O 1.8853344749763257 3.011436524172251 4.898193317064848
H 1.6127655343745264 2.5294707130901957 4.199528525470692
H 1.5577096283678826 3.8996407032714915 4.759575919886214
15
5 randomly positioned water molecules in a 5 * 5 * 5 box. No. 477.
O 3.1388114800639637 4.741279412158615 1.9988447841037538
H 2.8669816079589845 3.980189399292886 1.4623958804046504
H 3.81237015317817 4.443544330950019 2.6271448552943935
O 1.9507125914660528 3.2802097707666005 3.6402888887484397
H 2.161052553476563 4.1771813127215385 3.397586368149498
H 1.2181758621128926 2.9851457746630636 3.062822384375117
O 0.9362407063564093 1.4600764628654366 3.302067461287612
H 0.6266812171055729 0.8540668401468157 2.591483316066704
H 0.654094058831379 1.1318479099500605 4.113691586111771
O 2.461476703803797 1.5781270288037157 3.6725420587429
H 3.0011840453476553 2.3739308953711284 3.5000217133508182
H 2.095274315757172 1.8291819084337844 4.492248430116708
O 3.53805074927389 0.4161103033594571 1.435645187495655
H 3.4119671006457946 1.3591445904895856 1.7572867835044392
H 4.480432072029179 0.4111706180999347 1.2894444832675152
15
5 randomly positioned water molecules in a 5 * 5 * 5 box. No. 478.
O 3.1907047853766732 3.5630744270469865 3.58855423510946
H 3.181543112874673 4.0630496676176175 2.7328861832117832
H 3.1241302442594763 4.145052099904429 4.315186360020184
O 2.6338058481508146 0.7133642979948029 3.3687103583772298
H 1.7111314484584177 0.6614644465471546 3.0833631109577753
H 2.742864286750321 1.4768470654250718 3.8939675261082582
O 3.9917711062897703 1.5987869971110757 2.467754752004768
H 4.492169594192941 1.2942939015008674 3.1852106811498766
H 4.379304519239334 1.1932078339271377 1.6598607105560672
O 0.24991510808060557 2.3393518309447083 3.4322649460594086
H 0.10477167091036604 2.2168807144129157 2.5010729542704935
H 1.0777371269657254 1.9250338417591473 3.6360153589703432
O 1.302881131504467 0.03579736705629888 1.095699667223538
H 0.8471403432423388 0.8764241870957623 1.345906006448336
H 1.286860516370927 0.03086367714375754 0.15182117008231188
15
5 randomly positioned water molecules in a 5 * 5 * 5 box. No. 479.
O 2.60051850991194 3.156404077016038 3.9153183475106825
H 3.497100383051575 3.276196770821948 4.096221116394396
H 2.1322130839111146 3.6213850963311343 4.606110207515018
O 4.362013287947185 1.5333588031192413 1.6736389642211909
H 4.667403482704408 0.9981396163332387 0.9793342718546743
H 4.4498771645312765 2.4102722570054036 1.3115496474884032
O 4.776573273309705 4.950394689533207 2.604837174527494
H 4.398255721983191 4.210759108240575 3.1188630136708246
H 4.793402782686681 4.6938992071888865 1.689216130130807
O 0.6042020046943203 0.48210773796076023 2.3568856513272047
H 1.1211728622661719 0.9090000552688586 3.0826255973198693
H 1.0606205168347294 0.695368656325956 1.5049571921103344
O 2.7428369132653296 1.9789332112140479 2.706261720192224
H 2.5312301379163107 2.8210292736836564 2.2432813784090992
H 2.2599152492519976 2.0075190413674235 3.5024051833684053
15
5 randomly positioned water molecules in a 5 * 5 * 5 box. No. 480.
O 3.6007482618662086 2.61320763465865 0.727323373728177
H 4.369975166763069 3.077319376857231 0.23742103285252153
H 3.0635834871383856 3.2114025030085793 1.2130778461056093
O 2.3297762494592877 2.980578643099579 4.71682656095792
H 3.2001052967696157 2.657258883325725 4.501579153625604
H 2.3978867852470205 3.9952710252802355 4.864443952053422
O 2.3367522980523625 0.90103547638687 1.702837263124125
H 1.7056587088331239 0.9416108895596631 1.010407034103324
H 2.4973618910877353 1.812140218031686 1.9779931669919666
O 0.36490066014216727 0.9321219186551077 3.8950641655038694
H 0.8351593335070332 1.0302698707337896 4.744400157971386
H 1.0111562384609556 0.48965948364862405 3.349996467228462
O 4.5776104562925175 4.591547643709487 2.854069824584366
H 3.9533959201437288 4.383468044855446 3.5097763555938384
H 4.903040364200422 3.672924672810383 2.6243419290194714
15
5 randomly positioned water molecules in a 5 * 5 * 5 box. No. 481.
O 2.7343192951709754 2.788195618541889 2.0499188336947336
H 3.3548494621935863 2.9142350619840336 1.4045407114200914
H 3.0207296676742605 1.9921157377959384 2.5105275194088357
O 1.2446001832850668 0.8737814901333335 3.5195899013287146
H 1.7008690795390762 0.14692359741862782 3.0599918342095473
H 0.47674926247527294 0.4804433001239422 3.9879759512836825
O 1.6864675745969437 2.426035694435165 3.5601656707947535
H 1.7032784184361367 1.8847329113779294 2.7947126035368077
H 1.6502397631085077 1.818232105335164 4.281287754708787
O 0.28361554786691723 2.568386350744568 1.1034913081005788
H 0.4298689987869471 3.308579434923303 0.5036593344624115
H 0.9901869404105141 1.978069865963215 0.93014954097428
O 4.311105783767949 1.1107619478167707 2.079659796555565
H 4.655801169682778 1.0089538217759382 3.009668760461523
H 4.326724827535765 2.0404448619780045 1.8603042000525611
15
5 randomly positioned water molecules in a 5 * 5 * 5 box. No. 482.
O 3.3712787433775593 1.0837270008759243 3.8614633228713426
H 3.4433668019136485 1.4376159340169132 4.8032093999141185
H 4.328493124504608 0.8145926929084094 3.6686071172752532
O 3.6138616952258267 4.146858993537846 3.074574037183208
H 3.3085808742613385 4.564475480968759 3.8129647940204987
H 3.4207592718676487 4.766545859648717 2.318253438342309
O 3.360557820155741 2.9756926164782938 1.6688306890117515
H 2.8680492088935883 3.327724026542335 0.8791961783391694
H 2.706794535268868 3.007943260532871 2.3631362098859574
O 1.1566567425652963 1.1512258396759012 1.5947498032478469
H 1.6433244868953363 1.4912392032043758 0.8404422244098465
H 1.719903286441724 1.4214946887353128 2.344591663905411
O 2.7442340013462663 3.156407141707093 4.516190105651145
H 2.1828613240154966 2.3456388853566175 4.420983725048035
H 3.60069199690583 2.7900254200468497 4.3373315051407575
15
5 randomly positioned water molecules in a 5 * 5 * 5 box. No. 483.
O 2.9380866455695376 2.6494463139318567 4.072651381072557
H 2.563088092092644 2.516465575720966 3.23089761190535
H 3.7052433629001835 3.2817557118842466 3.931961745157485
O 1.9925610468565247 3.5260147174698435 0.8783098709668025
H 1.2177715943388356 3.3948122362809325 0.2219412644759895
H 1.6506808651265046 3.0870490379938293 1.692372981110784
O 2.0288467414802285 4.210792185320825 4.135191333739314
H 2.5607135370284686 4.195698496625515 3.3983057480495322
H 2.638977810373523 3.883716589946758 4.832426969179913
O 3.9151542416819862 0.8420817664504437 1.149995820306264
H 4.360390514045454 1.1702833244091047 0.37493686184539554
H 4.365030321958011 1.3146086103892771 1.9099847421706704
O 0.8928627652408594 0.5291079447337982 3.4271303365326617
H 1.054050643774635 0.9047747782981462 2.5791821678456675
H 1.089637795044878 1.1325993454109695 4.1140766811639
15
5 randomly positioned water molecules in a 5 * 5 * 5 box. No. 484.
O 1.399357363489675 0.9900698732697788 2.063669289282795
H 1.2871033040658122 0.6376054527311914 1.1611572238581875
H 1.2635039208300307 0.21219032371534885 2.699264321421723
O 1.210412883403969 4.0966481833657244 1.7180274534797784
H 1.9237482669380683 4.737501381986473 1.560803341957671
H 1.4456102155995125 3.694144735030531 2.596394158431017
O 4.2326243983556635 0.27953928127400385 3.3962363211105644
H 4.792296095903897 1.0562787570604188 3.631287548622237
H 4.471448219842916 0.17166307996667501 2.45912105461922
O 3.9286569624055234 1.2932170680860011 0.142659708458458
H 4.069220783737723 2.032251908875442 0.728759316692799
H 4.807222932926491 0.8618028456000606 0.10055366724203652
O 1.9306377588008494 2.764783797884527 0.8628889109550625
H 1.4256958273726146 1.98487208858885 1.0009118485253337
H 1.3261142923808233 3.4419137452077626 0.5634584360607938
15
5 randomly positioned water molecules in a 5 * 5 * 5 box. No. 485.
O 3.1764810987940963 2.1790495846457922 3.398452322266772
H 3.6553194323404394 2.9798569846650937 3.3198679302856147
H 2.5319971528219094 2.3527342997804963 4.1016224780971955
O 1.6165484511327128 1.2545751338389106 2.597187562840844
H 2.332879094392845 1.2902759624474602 2.0622891640030585
H 1.946765884146258 1.099517329136773 3.4533459242852853
O 1.979848014250059 3.882243258551977 1.5304563146278005
H 2.532374899071206 4.187331591181663 0.8349734431537265
H 1.9919690894931643 4.641963386037222 2.124922337401137
O 0.02284896306970985 0.3585124472045459 3.782447313299067
H 0.6080594649130193 0.7290256658209461 4.430228127384202
H 0.34507812481604483 0.6705569830726335 2.9467295956881663
O 1.0066063540037833 2.820406901505859 2.5395147511073772
H 0.6003913302969714 3.5797128106950127 2.854484643358887
H 0.4062916640736163 2.153817693917471 2.792372217964878
15
5 randomly positioned water molecules in a 5 * 5 * 5 box. No. 486.
O 2.6435019132834787 0.9934313900301034 1.7610463552406175
H 3.0091006765916926 0.14444375047179625 1.6511104401271854
H 2.968362280894892 1.2383770453056515 2.641105580386008
O 3.3372024341419197 2.67881603633556 1.216195567148568
H 2.753485456545036 3.0308827106931453 1.9022070595227616
H 2.725794150527103 2.6254415905891677 0.5010646833018451
O 4.462858446553275 2.766563732556478 3.053677460069579
H 4.369972077791018 3.056685663269703 2.1690896176629226
H 3.8854277825307877 2.0207459137437853 3.1577714663833745
O 1.615780235568562 0.49419087461857636 4.26899258912808
H 2.304340321074452 0.6223537483509575 3.5991637322462333
H 0.9212917231727844 1.04310650634739 3.9879276890373636
O 1.2789293661657957 4.187083181002419 1.0111540020096033
H 1.725217856186468 3.8418903130258224 1.780963250578663
H 1.883233091290228 4.753391242104863 0.48154144875274807
15
5 randomly positioned water molecules in a 5 * 5 * 5 box. No. 487.
O 2.0081678929748255 0.38681195838718485 4.1233793755726715
H 1.3130809930522376 0.04715699171556986 4.768215689621442
H 2.5853312619917577 0.9698655214513985 4.6387897204026105
O 3.3059446500367025 0.8083510191665655 2.416731690781175
H 3.826163793124932 0.18419130992959531 2.99253456240982
H 3.9412611254174283 1.5370292841412405 2.1824688002118697
O 3.527601539566118 4.498986249731147 1.0637530134651114
H 4.422576345662965 4.7738862608920485 1.3244571492513888
H 3.6094662277775025 3.6159147416508963 0.5845004748500743
O 3.459659025042478 3.248696331215832 3.268731650933975
H 3.6203207782595745 3.8772368366630685 3.9223084819562546
H 4.147844069647395 2.607591137022976 3.409712846697957
O 0.9898523622327565 3.980890806689878 3.043337739287995
H 1.6411034585451896 3.5075192150798453 2.501032585443552
H 1.2002324016576225 3.656729903744815 3.9413881837526983
15
5 randomly positioned water molecules in a 5 * 5 * 5 box. No. 488.
O 4.970337132652295 2.000310006506302 1.153726175165632
H 4.072176923071476 1.729812894107615 0.9505850029267817
H 4.835499573644286 2.4979850853168157 1.8806952392740401
O 1.1356112818505677 4.310495952654816 1.7478680760859828
H 1.6311127915157608 4.677224810304243 2.4284357895099604
H 1.7632529273759343 4.241152527503224 1.0173704074413625
O 2.9171909031941645 3.4927076376268333 4.0686526452088465
H 2.51968670505183 4.105787396819752 4.7872797752695675
H 2.677043203528142 4.059400309021939 3.314671178176457
O 2.054367287925224 2.7609335668064485 0.3232238712580465
H 2.546403282805916 1.9478318951938807 0.4159132275576153
H 1.4062198735483584 2.700590328066005 1.0257948307153035
O 0.6424806516604759 1.1204795722075849 3.650855270882174
H 0.5731028362363149 0.15626101755619226 3.717555175653378
H 1.3022465007382276 1.3909862545443963 4.317410289396339
15
5 randomly positioned water molecules in a 5 * 5 * 5 box. No. 489.
O 1.587635980417264 1.497294020014503 2.278813526756753
H 2.096627102122843 1.689626212569491 1.5170892871525223
H 2.0666353151238037 1.9115381234700612 2.986259925987264
O 2.812358530811162 3.7786020903627437 4.988685882687012
H 3.4889932502082943 4.350452090272832 4.528415986552168
H 2.048152999352191 3.570399798096388 4.422746760754812
O 3.8669598519239976 0.7697179386621028 2.5845708205407676
H 3.426762096036448 0.1932366703591345 3.1362929530625667
H 4.193572966437425 1.4108376605741042 3.1208662915344183
O 1.9638257537763737 3.677901252264284 0.8373182787843853
H 2.5846401863559003 3.191650542927564 0.33063422178771007
H 1.2050273747240783 3.2469229667969755 0.6768626404470228
O 3.9656649891890723 4.016356945652016 2.1947628567165642
H 3.448968439941385 3.6629120128221557 2.9536826640345497
H 4.6926265580566024 3.4111772168734933 1.962166559503379
15
5 randomly positioned water molecules in a 5 * 5 * 5 box. No. 490.
O 1.3073267463474152 0.745071306380698 1.992979752722794
H 0.8647287431763754 1.0380359348628736 1.226191060750225
H 2.1960349180200875 0.5299905931568282 1.723258194931204
O 2.973551787644822 3.7124292646981893 3.9197002547668496
H 3.696877748726274 3.3231963248622716 4.506093551407012
H 2.8615108254098494 3.0269889348953334 3.2797913928887454
O 3.1632367241218584 1.4441576198802353 3.8659743153521005
H 3.728718118855465 0.7999590180795726 3.423473677073164
H 3.2016290578715956 1.1921884566295973 4.77428552705736
O 2.2756695088375567 4.224550758735765 1.2741021848728233
H 1.7022395108415367 3.51395489524735 0.9099712638066199
H 2.25413016482689 4.018722508999799 2.2275920465383967
O 0.4150330882279496 3.9599275613862748 1.7117961067560783
H 0.07767641542381643 4.184377224048501 0.8510991673037103
H 0.957325756248293 4.6307864936456475 1.9435611183065535
15
5 randomly positioned water molecules in a 5 * 5 * 5 box. No. 491.
O 3.403828461948489 2.971811603535289 1.1361988636419547
H 3.688894422117646 2.419460452578597 1.8477456416443876
H 3.792716519728581 3.8668846725052703 1.2425793697455116
O 3.453288036110829 1.412208220664815 0.6250296753681345
H 3.1031711145464174 0.5392840429016706 0.7702526463193932
H 4.302566989556104 1.40518774272661 0.8704173670592859
O 1.6125009360584048 3.6141739719917716 3.689996322611208
H 1.5475179872139244 3.3724962964481398 2.7550817237516574
H 2.4571453566899546 3.34681455453727 3.9043842407770484
O 3.7102637890830237 0.6564516138161897 3.8225376207745376
H 3.6709259088629316 1.0993773509222788 2.9657287821389007
H 3.4838243338946264 1.3397715751614059 4.5052798875021
O 1.0281076958351658 4.067534111424781 1.437296406176758
H 0.7122122091930889 4.589121286994826 2.1573809594983047
H 0.8361667584459976 4.484313012006396 0.5843543427541164
15
5 randomly positioned water molecules in a 5 * 5 * 5 box. No. 492.
O 4.1239558362661635 2.2002111138136464 1.351609940684595
H 3.8532626036190947 2.479228027208716 0.48322669220490555
H 3.80002366281278 2.8309417087368467 1.9545060607427298
O 1.5397934576230194 1.6787935984713025 2.9427738749269476
H 0.771025620533343 1.9970033916494287 3.4566358492198863
H 1.35943778916389 1.8834125627157237 2.0484124599966655
O 1.506655332462904 4.768264844346191 3.9506923026643292
H 1.7544422491660028 4.509895869176041 4.805942689082965
H 1.5220849607492228 4.023072287299682 3.4282513271384296
O 3.0972453297463205 0.3092946160514126 3.6744819799350044
H 2.4364804044452644 0.8193638410541408 4.1408019337545205
H 2.7679623840764465 0.1667141469252855 2.767265796449088
O 1.2528888169092727 0.7503185405324869 0.6464461879280387
H 1.0149927989096226 0.5644393923780777 1.5021746672715177
H 0.7990917534548071 0.08740764072459473 0.2507586647990245
15
5 randomly positioned water molecules in a 5 * 5 * 5 box. No. 493.
O 3.9311984098779247 3.5294988312060473 2.2495883870894113
H 4.29342692156897 3.3085697991115652 1.3966667776735635
H 4.5545182920989 3.199234413456489 2.790457717173095
O 2.42641354134716 2.6618198317921387 2.085204953638069
H 1.887862601928469 2.5575808364573556 2.9216731650730003
H 2.5523344115858038 3.620700382809167 1.969242922354181
O 0.3264355183687101 4.490171943666496 3.144702680657629
H 1.035938691944743 4.831673662014018 2.613033855695763
H 0.7058309274381722 3.886149298046859 3.8193004602675007
O 3.29565470228538 0.8634595898978797 2.811090867316139
H 3.1479607979732056 0.6966973114569108 1.8970057676382965
H 2.456417849067196 1.0986419986449867 3.134611864481304
O 3.902081620668829 0.3215831306929823 4.227355636062925
H 4.379666898292554 0.7006656925999657 3.502628937760502
H 4.37450195338974 0.7415808697664942 4.98297166650232
15
5 randomly positioned water molecules in a 5 * 5 * 5 box. No. 494.
O 0.8748587395077145 4.595638017359728 2.105277729808467
H 0.3330909788472163 4.8894627824441015 2.8188388452783557
H 0.3357152707846517 4.402041655049476 1.3971571417657707
O 3.557472009773699 1.223915621644673 1.2406784673957394
H 3.319758339551804 2.160333091022848 1.2371710970886873
H 3.562066593860689 0.9990681285309515 2.1566233284152467
O 0.6168434158088992 0.9524324431714787 4.467065517657554
H 0.818689011499214 1.4262461747176376 3.578775667468461
H 1.4458659195429338 0.4742015396844905 4.652718806486473
O 0.2645188998085257 1.3531486279695037 1.0616382467164183
H 1.0010395122183466 0.9262110577796272 0.6226646134481701
H 0.6979003192274739 1.6317915728303256 1.8727411223264485
O 3.8068812109209462 3.989839164302984 4.521540065515117
H 3.3217431693683013 4.104246169080914 3.7491279140822105
H 3.3984325290378723 3.1911418788179304 4.948337561573325
15
5 randomly positioned water molecules in a 5 * 5 * 5 box. No. 495.
O 3.2280076358977015 0.7967351979771864 4.1653315192897855
H 3.1758521651659395 1.7764892426334198 4.154576900518525
H 4.092130058409348 0.663757578843007 4.607833799934548
O 1.5674782315249618 1.8738004848951055 1.2827329899648436
H 1.9676889165058415 1.5778387385617718 0.513735979130008
H 2.1731376117483228 1.678555750737569 2.0158455539609044
O 0.7717877951805946 1.2958051178926473 3.3333579968963116
H 1.0772090262704959 0.8737140767015378 4.100796792729618
H 1.179702352501625 0.7861744368961943 2.5887501430258864
O 3.546679353013746 4.705132931441625 2.9994142169413047
H 2.607720546570535 4.730431376595455 3.1225663969679753
H 3.706817316117044 3.9766725261489313 2.4458074601220288
O 1.2941932179285205 4.0851877961810334 1.9514514755122851
H 0.7716799012264562 4.108321441735991 1.132489783784325
H 0.6824095155492205 3.911017375643918 2.5759591806215107
15
5 randomly positioned water molecules in a 5 * 5 * 5 box. No. 496.
O 1.7298911117362064 3.77221752096213 0.30688590567789387
H 1.1730496498329588 3.6156052905865126 1.1140211776643625
H 1.84172380898086 4.72047304905225 0.3163150832890849
O 3.1072447121238995 1.85496985357394 3.6069641717136394
H 3.4105200713703336 1.2068490392585667 2.9396396981634365
H 3.554870233735347 1.5356792093654186 4.387736465777042
O 1.0658500717905035 1.4186730275890773 0.8939669953286644
H 1.483880486871978 1.2824498477854642 1.7407973064728828
H 1.837492881671252 1.6489466699888462 0.3707411212589111
O 4.03704033840245 3.992427952176025 4.265571441494224
H 4.001110759410711 4.88792969392938 3.9033065289697757
H 4.8684131006212485 3.629172816941625 4.0641672433579
O 2.1146319226663652 4.228625182364712 4.2320641653579525
H 2.841637550180164 3.6772468363147865 3.8439464292999115
H 1.8242212655631056 4.711081849035367 3.4268420552116168
15
5 randomly positioned water molecules in a 5 * 5 * 5 box. No. 497.
O 0.9233741998986505 1.8705214809243098 2.155413320559178
H 1.753798073120674 1.6234435371962506 2.6466521748692404
H 0.16901391366147522 1.4169590124514337 2.56781257639944
O 4.319885005337907 4.525755136919402 4.367648276440869
H 4.899532431653508 3.7776142136771207 4.625007959247296
H 4.248109413001497 4.4700874804898305 3.3642463546547674
O 3.1498913082656586 1.6685488367542063 1.3666155009545662
H 3.5154970840063813 2.2044274142087588 2.0617505584124762
H 3.9443589458288386 1.5940970013385436 0.848921660097792
O 1.847009112797711 3.4735906088996513 1.7062351371324476
H 1.049901417036788 3.7464350719042416 2.197375129997664
H 1.931872556925296 4.085183140427967 0.9619453099253052
O 4.934225531240512 3.066508528151741 1.9578024909776648
H 4.380049923181079 3.2187293051359376 2.729677185123263
H 4.3901160887068835 3.2271341408211014 1.2033916980807295
15
5 randomly positioned water molecules in a 5 * 5 * 5 box. No. 498.
O 2.5544546184199324 4.760188597563266 1.4102220081300625
H 2.1100930724641214 4.639696038610317 0.6035890487128621
H 2.939979497885503 3.8940762123404062 1.564573717028664
O 1.9481928386286407 1.833206401449069 2.632133489536637
H 1.8288124749563086 2.3261193527851813 1.8016810653120836
H 1.9077882143209284 2.440874404049163 3.3553629633389925
O 3.371389528323161 0.2587229836497901 2.2054106877261987
H 4.247609431172267 0.656209678539094 2.430383646913781
H 2.785124554037365 0.8908704284108359 1.8280300778038916
O 4.328145321139771 3.696485052260383 2.548254871658126
H 4.928304614017567 4.331762004886632 2.184465528617155
H 4.727400566970347 2.8365156954729045 2.5412871797027807
O 2.667497109153629 4.065948018565636 4.176032813910289
H 2.8176465185184614 3.392819930557878 3.4662931392616256
H 3.1969437954515776 3.805153358690714 4.926040439992791
15
5 randomly positioned water molecules in a 5 * 5 * 5 box. No. 499.
O 3.6858787489828106 3.509736791236675 3.161463842862685
H 4.099021463119513 3.6747099930284786 4.034162880570582
H 4.36861065511184 3.62461792409917 2.4428953444257653
O 0.043518825106559356 2.7721222342469627 1.7604178832106165
H 0.5464747606186456 1.9911811227493963 1.7487554295564216
H 0.37183620146214963 3.341264586655382 0.9823389806122185
O 1.806871787151045 4.077676753850194 2.352738002254207
H 2.628914277245049 3.8818273447130087 2.114824969232557
H 1.8610543589957254 4.76819836550413 2.9610377618990693
O 1.968540940475854 2.3555214785407337 0.6315596553078245
H 2.6459798357768824 2.0209415254468817 0.018280490055821996
H 2.360470419023797 3.12023145326281 1.1235839527306482
O 2.0117802274798806 2.7753339215437185 4.012986508970101
H 2.741935073156151 3.317576211778652 4.423191902667677
H 2.05258895690364 3.059074313713012 3.0959556593676476
15
5 randomly positioned water molecules in a 5 * 5 * 5 box. No. 500.
O 2.917317613647728 3.5652548267652695 3.8182046413475867
H 3.5582303681587715 3.455210778670286 3.086403851418024
H 2.3029339044756556 2.858927128967024 3.76149761546894
O 0.968532189946219 2.316793849330874 2.2350600732926345
H 1.1322297104061958 1.810373132207351 3.0544838641389154
H 1.0029443170246246 1.7686203402935554 1.4717047160239805
O 4.875331234917822 4.720933989001077 1.216005073609296
H 4.235008602279157 4.71330225112232 0.5211021020736823
H 4.249115603803549 4.580248114768124 1.992036404629327
O 3.513639166859228 1.633536290586131 3.520727593301418
H 3.9343904366075533 1.9453315615355042 4.32523873120188
H 4.149059385152583 0.9998588388945813 3.0953404972136918
O 2.123589229283281 4.820205594386443 2.004353274865262
H 2.592335897845986 4.641633150068603 1.2838389236731846
H 2.55612172278875 4.301761793185393 2.707651393272657
15
substructure 5-mer 1 from 7-mer
O 32.9785347 2.47792697 -6.97352362 
H 32.1806602 2.85497546 -6.55944252 
H 32.8864021 2.60883498 -7.91253853 
O 33.7763748 0.588865280 -5.04061556 
H 33.4611588 1.13189435 -5.78154945 
H 34.0771370 -0.234655276 -5.41661501 
O 29.4817715 1.35507023 -4.58200788 
H 28.7119846 1.07264745 -4.09540939 
H 30.2398758 1.20727551 -3.99174929 
O 31.7936611 1.22622347 -3.07037520 
H 31.9690533 2.16996717 -2.96573281 
H 32.4792175 0.899961531 -3.66734314 
O 34.5903778 3.34339523 -4.74311209 
H 34.2045059 3.36090350 -5.62828350 
H 34.6538200 2.40015364 -4.55031681 
15
substructure 5-mer 2 from 7-mer
O 32.9785347 2.47792697 -6.97352362 
H 32.1806602 2.85497546 -6.55944252 
H 32.8864021 2.60883498 -7.91253853 
O 33.7763748 0.588865280 -5.04061556 
H 33.4611588 1.13189435 -5.78154945 
H 34.0771370 -0.234655276 -5.41661501 
O 29.4817715 1.35507023 -4.58200788 
H 28.7119846 1.07264745 -4.09540939 
H 30.2398758 1.20727551 -3.99174929 
O 31.7936611 1.22622347 -3.07037520 
H 31.9690533 2.16996717 -2.96573281 
H 32.4792175 0.899961531 -3.66734314 
O 30.8828506 3.51472712 -5.62181950 
H 31.2674732 3.84614348 -4.80147123 
H 30.2762489 2.80669689 -5.35792875 
15
substructure 5-mer 3 from 7-mer
O 32.9785347 2.47792697 -6.97352362 
H 32.1806602 2.85497546 -6.55944252 
H 32.8864021 2.60883498 -7.91253853 
O 33.7763748 0.588865280 -5.04061556 
H 33.4611588 1.13189435 -5.78154945 
H 34.0771370 -0.234655276 -5.41661501 
O 29.4817715 1.35507023 -4.58200788 
H 28.7119846 1.07264745 -4.09540939 
H 30.2398758 1.20727551 -3.99174929 
O 31.7936611 1.22622347 -3.07037520 
H 31.9690533 2.16996717 -2.96573281 
H 32.4792175 0.899961531 -3.66734314 
O 32.3974495 4.04858446 -3.22366667 
H 33.2369919 3.90316296 -3.69132018 
H 32.5460052 4.76399660 -2.61105204 
15
substructure 5-mer 4 from 7-mer
O 32.9785347 2.47792697 -6.97352362 
H 32.1806602 2.85497546 -6.55944252 
H 32.8864021 2.60883498 -7.91253853 
O 33.7763748 0.588865280 -5.04061556 
H 33.4611588 1.13189435 -5.78154945 
H 34.0771370 -0.234655276 -5.41661501 
O 29.4817715 1.35507023 -4.58200788 
H 28.7119846 1.07264745 -4.09540939 
H 30.2398758 1.20727551 -3.99174929 
O 34.5903778 3.34339523 -4.74311209 
H 34.2045059 3.36090350 -5.62828350 
H 34.6538200 2.40015364 -4.55031681 
O 30.8828506 3.51472712 -5.62181950 
H 31.2674732 3.84614348 -4.80147123 
H 30.2762489 2.80669689 -5.35792875 
15
substructure 5-mer 5 from 7-mer
O 32.9785347 2.47792697 -6.97352362 
H 32.1806602 2.85497546 -6.55944252 
H 32.8864021 2.60883498 -7.91253853 
O 33.7763748 0.588865280 -5.04061556 
H 33.4611588 1.13189435 -5.78154945 
H 34.0771370 -0.234655276 -5.41661501 
O 29.4817715 1.35507023 -4.58200788 
H 28.7119846 1.07264745 -4.09540939 
H 30.2398758 1.20727551 -3.99174929 
O 34.5903778 3.34339523 -4.74311209 
H 34.2045059 3.36090350 -5.62828350 
H 34.6538200 2.40015364 -4.55031681 
O 32.3974495 4.04858446 -3.22366667 
H 33.2369919 3.90316296 -3.69132018 
H 32.5460052 4.76399660 -2.61105204 
15
substructure 5-mer 6 from 7-mer
O 32.9785347 2.47792697 -6.97352362 
H 32.1806602 2.85497546 -6.55944252 
H 32.8864021 2.60883498 -7.91253853 
O 33.7763748 0.588865280 -5.04061556 
H 33.4611588 1.13189435 -5.78154945 
H 34.0771370 -0.234655276 -5.41661501 
O 29.4817715 1.35507023 -4.58200788 
H 28.7119846 1.07264745 -4.09540939 
H 30.2398758 1.20727551 -3.99174929 
O 30.8828506 3.51472712 -5.62181950 
H 31.2674732 3.84614348 -4.80147123 
H 30.2762489 2.80669689 -5.35792875 
O 32.3974495 4.04858446 -3.22366667 
H 33.2369919 3.90316296 -3.69132018 
H 32.5460052 4.76399660 -2.61105204 
15
substructure 5-mer 7 from 7-mer
O 32.9785347 2.47792697 -6.97352362 
H 32.1806602 2.85497546 -6.55944252 
H 32.8864021 2.60883498 -7.91253853 
O 33.7763748 0.588865280 -5.04061556 
H 33.4611588 1.13189435 -5.78154945 
H 34.0771370 -0.234655276 -5.41661501 
O 31.7936611 1.22622347 -3.07037520 
H 31.9690533 2.16996717 -2.96573281 
H 32.4792175 0.899961531 -3.66734314 
O 34.5903778 3.34339523 -4.74311209 
H 34.2045059 3.36090350 -5.62828350 
H 34.6538200 2.40015364 -4.55031681 
O 30.8828506 3.51472712 -5.62181950 
H 31.2674732 3.84614348 -4.80147123 
H 30.2762489 2.80669689 -5.35792875 
15
substructure 5-mer 8 from 7-mer
O 32.9785347 2.47792697 -6.97352362 
H 32.1806602 2.85497546 -6.55944252 
H 32.8864021 2.60883498 -7.91253853 
O 33.7763748 0.588865280 -5.04061556 
H 33.4611588 1.13189435 -5.78154945 
H 34.0771370 -0.234655276 -5.41661501 
O 31.7936611 1.22622347 -3.07037520 
H 31.9690533 2.16996717 -2.96573281 
H 32.4792175 0.899961531 -3.66734314 
O 34.5903778 3.34339523 -4.74311209 
H 34.2045059 3.36090350 -5.62828350 
H 34.6538200 2.40015364 -4.55031681 
O 32.3974495 4.04858446 -3.22366667 
H 33.2369919 3.90316296 -3.69132018 
H 32.5460052 4.76399660 -2.61105204 
15
substructure 5-mer 9 from 7-mer
O 32.9785347 2.47792697 -6.97352362 
H 32.1806602 2.85497546 -6.55944252 
H 32.8864021 2.60883498 -7.91253853 
O 33.7763748 0.588865280 -5.04061556 
H 33.4611588 1.13189435 -5.78154945 
H 34.0771370 -0.234655276 -5.41661501 
O 31.7936611 1.22622347 -3.07037520 
H 31.9690533 2.16996717 -2.96573281 
H 32.4792175 0.899961531 -3.66734314 
O 30.8828506 3.51472712 -5.62181950 
H 31.2674732 3.84614348 -4.80147123 
H 30.2762489 2.80669689 -5.35792875 
O 32.3974495 4.04858446 -3.22366667 
H 33.2369919 3.90316296 -3.69132018 
H 32.5460052 4.76399660 -2.61105204 
15
substructure 5-mer 10 from 7-mer
O 32.9785347 2.47792697 -6.97352362 
H 32.1806602 2.85497546 -6.55944252 
H 32.8864021 2.60883498 -7.91253853 
O 33.7763748 0.588865280 -5.04061556 
H 33.4611588 1.13189435 -5.78154945 
H 34.0771370 -0.234655276 -5.41661501 
O 34.5903778 3.34339523 -4.74311209 
H 34.2045059 3.36090350 -5.62828350 
H 34.6538200 2.40015364 -4.55031681 
O 30.8828506 3.51472712 -5.62181950 
H 31.2674732 3.84614348 -4.80147123 
H 30.2762489 2.80669689 -5.35792875 
O 32.3974495 4.04858446 -3.22366667 
H 33.2369919 3.90316296 -3.69132018 
H 32.5460052 4.76399660 -2.61105204 
15
substructure 5-mer 11 from 7-mer
O 32.9785347 2.47792697 -6.97352362 
H 32.1806602 2.85497546 -6.55944252 
H 32.8864021 2.60883498 -7.91253853 
O 29.4817715 1.35507023 -4.58200788 
H 28.7119846 1.07264745 -4.09540939 
H 30.2398758 1.20727551 -3.99174929 
O 31.7936611 1.22622347 -3.07037520 
H 31.9690533 2.16996717 -2.96573281 
H 32.4792175 0.899961531 -3.66734314 
O 34.5903778 3.34339523 -4.74311209 
H 34.2045059 3.36090350 -5.62828350 
H 34.6538200 2.40015364 -4.55031681 
O 30.8828506 3.51472712 -5.62181950 
H 31.2674732 3.84614348 -4.80147123 
H 30.2762489 2.80669689 -5.35792875 
15
substructure 5-mer 12 from 7-mer
O 32.9785347 2.47792697 -6.97352362 
H 32.1806602 2.85497546 -6.55944252 
H 32.8864021 2.60883498 -7.91253853 
O 29.4817715 1.35507023 -4.58200788 
H 28.7119846 1.07264745 -4.09540939 
H 30.2398758 1.20727551 -3.99174929 
O 31.7936611 1.22622347 -3.07037520 
H 31.9690533 2.16996717 -2.96573281 
H 32.4792175 0.899961531 -3.66734314 
O 34.5903778 3.34339523 -4.74311209 
H 34.2045059 3.36090350 -5.62828350 
H 34.6538200 2.40015364 -4.55031681 
O 32.3974495 4.04858446 -3.22366667 
H 33.2369919 3.90316296 -3.69132018 
H 32.5460052 4.76399660 -2.61105204 
15
substructure 5-mer 13 from 7-mer
O 32.9785347 2.47792697 -6.97352362 
H 32.1806602 2.85497546 -6.55944252 
H 32.8864021 2.60883498 -7.91253853 
O 29.4817715 1.35507023 -4.58200788 
H 28.7119846 1.07264745 -4.09540939 
H 30.2398758 1.20727551 -3.99174929 
O 31.7936611 1.22622347 -3.07037520 
H 31.9690533 2.16996717 -2.96573281 
H 32.4792175 0.899961531 -3.66734314 
O 30.8828506 3.51472712 -5.62181950 
H 31.2674732 3.84614348 -4.80147123 
H 30.2762489 2.80669689 -5.35792875 
O 32.3974495 4.04858446 -3.22366667 
H 33.2369919 3.90316296 -3.69132018 
H 32.5460052 4.76399660 -2.61105204 
15
substructure 5-mer 14 from 7-mer
O 32.9785347 2.47792697 -6.97352362 
H 32.1806602 2.85497546 -6.55944252 
H 32.8864021 2.60883498 -7.91253853 
O 29.4817715 1.35507023 -4.58200788 
H 28.7119846 1.07264745 -4.09540939 
H 30.2398758 1.20727551 -3.99174929 
O 34.5903778 3.34339523 -4.74311209 
H 34.2045059 3.36090350 -5.62828350 
H 34.6538200 2.40015364 -4.55031681 
O 30.8828506 3.51472712 -5.62181950 
H 31.2674732 3.84614348 -4.80147123 
H 30.2762489 2.80669689 -5.35792875 
O 32.3974495 4.04858446 -3.22366667 
H 33.2369919 3.90316296 -3.69132018 
H 32.5460052 4.76399660 -2.61105204 
15
substructure 5-mer 15 from 7-mer
O 32.9785347 2.47792697 -6.97352362 
H 32.1806602 2.85497546 -6.55944252 
H 32.8864021 2.60883498 -7.91253853 
O 31.7936611 1.22622347 -3.07037520 
H 31.9690533 2.16996717 -2.96573281 
H 32.4792175 0.899961531 -3.66734314 
O 34.5903778 3.34339523 -4.74311209 
H 34.2045059 3.36090350 -5.62828350 
H 34.6538200 2.40015364 -4.55031681 
O 30.8828506 3.51472712 -5.62181950 
H 31.2674732 3.84614348 -4.80147123 
H 30.2762489 2.80669689 -5.35792875 
O 32.3974495 4.04858446 -3.22366667 
H 33.2369919 3.90316296 -3.69132018 
H 32.5460052 4.76399660 -2.61105204 
15
substructure 5-mer 16 from 7-mer
O 33.7763748 0.588865280 -5.04061556 
H 33.4611588 1.13189435 -5.78154945 
H 34.0771370 -0.234655276 -5.41661501 
O 29.4817715 1.35507023 -4.58200788 
H 28.7119846 1.07264745 -4.09540939 
H 30.2398758 1.20727551 -3.99174929 
O 31.7936611 1.22622347 -3.07037520 
H 31.9690533 2.16996717 -2.96573281 
H 32.4792175 0.899961531 -3.66734314 
O 34.5903778 3.34339523 -4.74311209 
H 34.2045059 3.36090350 -5.62828350 
H 34.6538200 2.40015364 -4.55031681 
O 30.8828506 3.51472712 -5.62181950 
H 31.2674732 3.84614348 -4.80147123 
H 30.2762489 2.80669689 -5.35792875 
15
substructure 5-mer 17 from 7-mer
O 33.7763748 0.588865280 -5.04061556 
H 33.4611588 1.13189435 -5.78154945 
H 34.0771370 -0.234655276 -5.41661501 
O 29.4817715 1.35507023 -4.58200788 
H 28.7119846 1.07264745 -4.09540939 
H 30.2398758 1.20727551 -3.99174929 
O 31.7936611 1.22622347 -3.07037520 
H 31.9690533 2.16996717 -2.96573281 
H 32.4792175 0.899961531 -3.66734314 
O 34.5903778 3.34339523 -4.74311209 
H 34.2045059 3.36090350 -5.62828350 
H 34.6538200 2.40015364 -4.55031681 
O 32.3974495 4.04858446 -3.22366667 
H 33.2369919 3.90316296 -3.69132018 
H 32.5460052 4.76399660 -2.61105204 
15
substructure 5-mer 18 from 7-mer
O 33.7763748 0.588865280 -5.04061556 
H 33.4611588 1.13189435 -5.78154945 
H 34.0771370 -0.234655276 -5.41661501 
O 29.4817715 1.35507023 -4.58200788 
H 28.7119846 1.07264745 -4.09540939 
H 30.2398758 1.20727551 -3.99174929 
O 31.7936611 1.22622347 -3.07037520 
H 31.9690533 2.16996717 -2.96573281 
H 32.4792175 0.899961531 -3.66734314 
O 30.8828506 3.51472712 -5.62181950 
H 31.2674732 3.84614348 -4.80147123 
H 30.2762489 2.80669689 -5.35792875 
O 32.3974495 4.04858446 -3.22366667 
H 33.2369919 3.90316296 -3.69132018 
H 32.5460052 4.76399660 -2.61105204 
15
substructure 5-mer 19 from 7-mer
O 33.7763748 0.588865280 -5.04061556 
H 33.4611588 1.13189435 -5.78154945 
H 34.0771370 -0.234655276 -5.41661501 
O 29.4817715 1.35507023 -4.58200788 
H 28.7119846 1.07264745 -4.09540939 
H 30.2398758 1.20727551 -3.99174929 
O 34.5903778 3.34339523 -4.74311209 
H 34.2045059 3.36090350 -5.62828350 
H 34.6538200 2.40015364 -4.55031681 
O 30.8828506 3.51472712 -5.62181950 
H 31.2674732 3.84614348 -4.80147123 
H 30.2762489 2.80669689 -5.35792875 
O 32.3974495 4.04858446 -3.22366667 
H 33.2369919 3.90316296 -3.69132018 
H 32.5460052 4.76399660 -2.61105204 
15
substructure 5-mer 20 from 7-mer
O 33.7763748 0.588865280 -5.04061556 
H 33.4611588 1.13189435 -5.78154945 
H 34.0771370 -0.234655276 -5.41661501 
O 31.7936611 1.22622347 -3.07037520 
H 31.9690533 2.16996717 -2.96573281 
H 32.4792175 0.899961531 -3.66734314 
O 34.5903778 3.34339523 -4.74311209 
H 34.2045059 3.36090350 -5.62828350 
H 34.6538200 2.40015364 -4.55031681 
O 30.8828506 3.51472712 -5.62181950 
H 31.2674732 3.84614348 -4.80147123 
H 30.2762489 2.80669689 -5.35792875 
O 32.3974495 4.04858446 -3.22366667 
H 33.2369919 3.90316296 -3.69132018 
H 32.5460052 4.76399660 -2.61105204 
15
substructure 5-mer 21 from 7-mer
O 29.4817715 1.35507023 -4.58200788 
H 28.7119846 1.07264745 -4.09540939 
H 30.2398758 1.20727551 -3.99174929 
O 31.7936611 1.22622347 -3.07037520 
H 31.9690533 2.16996717 -2.96573281 
H 32.4792175 0.899961531 -3.66734314 
O 34.5903778 3.34339523 -4.74311209 
H 34.2045059 3.36090350 -5.62828350 
H 34.6538200 2.40015364 -4.55031681 
O 30.8828506 3.51472712 -5.62181950 
H 31.2674732 3.84614348 -4.80147123 
H 30.2762489 2.80669689 -5.35792875 
O 32.3974495 4.04858446 -3.22366667 
H 33.2369919 3.90316296 -3.69132018 
H 32.5460052 4.76399660 -2.61105204 
15
substructure 5-mer 22 from 7-mer
O 31.0308933 3.52473974 -3.15031385 
H 31.6440563 2.82474852 -2.88202596 
H 30.2756157 3.02746582 -3.48775530 
O 32.1644554 4.67093897 -5.32993603 
H 31.7534714 4.34262657 -4.50951004 
H 31.7744274 5.52063179 -5.51524210 
O 29.6631279 1.34998333 -4.42692900 
H 30.2079067 1.56070101 -5.20509624 
H 28.9088459 0.864473045 -4.74862671 
O 31.4253330 2.06991553 -6.41565228 
H 32.2326660 1.58780646 -6.19228029 
H 31.6261101 2.99586940 -6.23466921 
O 34.7100830 3.55697274 -5.10098171 
H 35.2056198 4.03463125 -4.43962002 
H 33.8736305 4.03673506 -5.20727301 
15
substructure 5-mer 23 from 7-mer
O 31.0308933 3.52473974 -3.15031385 
H 31.6440563 2.82474852 -2.88202596 
H 30.2756157 3.02746582 -3.48775530 
O 32.1644554 4.67093897 -5.32993603 
H 31.7534714 4.34262657 -4.50951004 
H 31.7744274 5.52063179 -5.51524210 
O 29.6631279 1.34998333 -4.42692900 
H 30.2079067 1.56070101 -5.20509624 
H 28.9088459 0.864473045 -4.74862671 
O 31.4253330 2.06991553 -6.41565228 
H 32.2326660 1.58780646 -6.19228029 
H 31.6261101 2.99586940 -6.23466921 
O 32.2184219 0.999374270 -2.99370646 
H 31.3380642 0.883447051 -3.37342334 
H 32.8282928 0.891453385 -3.73361230 
15
substructure 5-mer 24 from 7-mer
O 31.0308933 3.52473974 -3.15031385 
H 31.6440563 2.82474852 -2.88202596 
H 30.2756157 3.02746582 -3.48775530 
O 32.1644554 4.67093897 -5.32993603 
H 31.7534714 4.34262657 -4.50951004 
H 31.7744274 5.52063179 -5.51524210 
O 29.6631279 1.34998333 -4.42692900 
H 30.2079067 1.56070101 -5.20509624 
H 28.9088459 0.864473045 -4.74862671 
O 31.4253330 2.06991553 -6.41565228 
H 32.2326660 1.58780646 -6.19228029 
H 31.6261101 2.99586940 -6.23466921 
O 33.8512497 0.969273984 -5.38466167 
H 34.2558861 1.84846652 -5.28929424 
H 34.5312500 0.388614476 -5.71588945 
15
substructure 5-mer 25 from 7-mer
O 31.0308933 3.52473974 -3.15031385 
H 31.6440563 2.82474852 -2.88202596 
H 30.2756157 3.02746582 -3.48775530 
O 32.1644554 4.67093897 -5.32993603 
H 31.7534714 4.34262657 -4.50951004 
H 31.7744274 5.52063179 -5.51524210 
O 29.6631279 1.34998333 -4.42692900 
H 30.2079067 1.56070101 -5.20509624 
H 28.9088459 0.864473045 -4.74862671 
O 34.7100830 3.55697274 -5.10098171 
H 35.2056198 4.03463125 -4.43962002 
H 33.8736305 4.03673506 -5.20727301 
O 32.2184219 0.999374270 -2.99370646 
H 31.3380642 0.883447051 -3.37342334 
H 32.8282928 0.891453385 -3.73361230 
15
substructure 5-mer 26 from 7-mer
O 31.0308933 3.52473974 -3.15031385 
H 31.6440563 2.82474852 -2.88202596 
H 30.2756157 3.02746582 -3.48775530 
O 32.1644554 4.67093897 -5.32993603 
H 31.7534714 4.34262657 -4.50951004 
H 31.7744274 5.52063179 -5.51524210 
O 29.6631279 1.34998333 -4.42692900 
H 30.2079067 1.56070101 -5.20509624 
H 28.9088459 0.864473045 -4.74862671 
O 34.7100830 3.55697274 -5.10098171 
H 35.2056198 4.03463125 -4.43962002 
H 33.8736305 4.03673506 -5.20727301 
O 33.8512497 0.969273984 -5.38466167 
H 34.2558861 1.84846652 -5.28929424 
H 34.5312500 0.388614476 -5.71588945 
15
substructure 5-mer 27 from 7-mer
O 31.0308933 3.52473974 -3.15031385 
H 31.6440563 2.82474852 -2.88202596 
H 30.2756157 3.02746582 -3.48775530 
O 32.1644554 4.67093897 -5.32993603 
H 31.7534714 4.34262657 -4.50951004 
H 31.7744274 5.52063179 -5.51524210 
O 29.6631279 1.34998333 -4.42692900 
H 30.2079067 1.56070101 -5.20509624 
H 28.9088459 0.864473045 -4.74862671 
O 32.2184219 0.999374270 -2.99370646 
H 31.3380642 0.883447051 -3.37342334 
H 32.8282928 0.891453385 -3.73361230 
O 33.8512497 0.969273984 -5.38466167 
H 34.2558861 1.84846652 -5.28929424 
H 34.5312500 0.388614476 -5.71588945 
15
substructure 5-mer 28 from 7-mer
O 31.0308933 3.52473974 -3.15031385 
H 31.6440563 2.82474852 -2.88202596 
H 30.2756157 3.02746582 -3.48775530 
O 32.1644554 4.67093897 -5.32993603 
H 31.7534714 4.34262657 -4.50951004 
H 31.7744274 5.52063179 -5.51524210 
O 31.4253330 2.06991553 -6.41565228 
H 32.2326660 1.58780646 -6.19228029 
H 31.6261101 2.99586940 -6.23466921 
O 34.7100830 3.55697274 -5.10098171 
H 35.2056198 4.03463125 -4.43962002 
H 33.8736305 4.03673506 -5.20727301 
O 32.2184219 0.999374270 -2.99370646 
H 31.3380642 0.883447051 -3.37342334 
H 32.8282928 0.891453385 -3.73361230 
15
substructure 5-mer 29 from 7-mer
O 31.0308933 3.52473974 -3.15031385 
H 31.6440563 2.82474852 -2.88202596 
H 30.2756157 3.02746582 -3.48775530 
O 32.1644554 4.67093897 -5.32993603 
H 31.7534714 4.34262657 -4.50951004 
H 31.7744274 5.52063179 -5.51524210 
O 31.4253330 2.06991553 -6.41565228 
H 32.2326660 1.58780646 -6.19228029 
H 31.6261101 2.99586940 -6.23466921 
O 34.7100830 3.55697274 -5.10098171 
H 35.2056198 4.03463125 -4.43962002 
H 33.8736305 4.03673506 -5.20727301 
O 33.8512497 0.969273984 -5.38466167 
H 34.2558861 1.84846652 -5.28929424 
H 34.5312500 0.388614476 -5.71588945 
15
substructure 5-mer 30 from 7-mer
O 31.0308933 3.52473974 -3.15031385 
H 31.6440563 2.82474852 -2.88202596 
H 30.2756157 3.02746582 -3.48775530 
O 32.1644554 4.67093897 -5.32993603 
H 31.7534714 4.34262657 -4.50951004 
H 31.7744274 5.52063179 -5.51524210 
O 31.4253330 2.06991553 -6.41565228 
H 32.2326660 1.58780646 -6.19228029 
H 31.6261101 2.99586940 -6.23466921 
O 32.2184219 0.999374270 -2.99370646 
H 31.3380642 0.883447051 -3.37342334 
H 32.8282928 0.891453385 -3.73361230 
O 33.8512497 0.969273984 -5.38466167 
H 34.2558861 1.84846652 -5.28929424 
H 34.5312500 0.388614476 -5.71588945 
15
substructure 5-mer 31 from 7-mer
O 31.0308933 3.52473974 -3.15031385 
H 31.6440563 2.82474852 -2.88202596 
H 30.2756157 3.02746582 -3.48775530 
O 32.1644554 4.67093897 -5.32993603 
H 31.7534714 4.34262657 -4.50951004 
H 31.7744274 5.52063179 -5.51524210 
O 34.7100830 3.55697274 -5.10098171 
H 35.2056198 4.03463125 -4.43962002 
H 33.8736305 4.03673506 -5.20727301 
O 32.2184219 0.999374270 -2.99370646 
H 31.3380642 0.883447051 -3.37342334 
H 32.8282928 0.891453385 -3.73361230 
O 33.8512497 0.969273984 -5.38466167 
H 34.2558861 1.84846652 -5.28929424 
H 34.5312500 0.388614476 -5.71588945 
15
substructure 5-mer 32 from 7-mer
O 31.0308933 3.52473974 -3.15031385 
H 31.6440563 2.82474852 -2.88202596 
H 30.2756157 3.02746582 -3.48775530 
O 29.6631279 1.34998333 -4.42692900 
H 30.2079067 1.56070101 -5.20509624 
H 28.9088459 0.864473045 -4.74862671 
O 31.4253330 2.06991553 -6.41565228 
H 32.2326660 1.58780646 -6.19228029 
H 31.6261101 2.99586940 -6.23466921 
O 34.7100830 3.55697274 -5.10098171 
H 35.2056198 4.03463125 -4.43962002 
H 33.8736305 4.03673506 -5.20727301 
O 32.2184219 0.999374270 -2.99370646 
H 31.3380642 0.883447051 -3.37342334 
H 32.8282928 0.891453385 -3.73361230 
15
substructure 5-mer 33 from 7-mer
O 31.0308933 3.52473974 -3.15031385 
H 31.6440563 2.82474852 -2.88202596 
H 30.2756157 3.02746582 -3.48775530 
O 29.6631279 1.34998333 -4.42692900 
H 30.2079067 1.56070101 -5.20509624 
H 28.9088459 0.864473045 -4.74862671 
O 31.4253330 2.06991553 -6.41565228 
H 32.2326660 1.58780646 -6.19228029 
H 31.6261101 2.99586940 -6.23466921 
O 34.7100830 3.55697274 -5.10098171 
H 35.2056198 4.03463125 -4.43962002 
H 33.8736305 4.03673506 -5.20727301 
O 33.8512497 0.969273984 -5.38466167 
H 34.2558861 1.84846652 -5.28929424 
H 34.5312500 0.388614476 -5.71588945 
15
substructure 5-mer 34 from 7-mer
O 31.0308933 3.52473974 -3.15031385 
H 31.6440563 2.82474852 -2.88202596 
H 30.2756157 3.02746582 -3.48775530 
O 29.6631279 1.34998333 -4.42692900 
H 30.2079067 1.56070101 -5.20509624 
H 28.9088459 0.864473045 -4.74862671 
O 31.4253330 2.06991553 -6.41565228 
H 32.2326660 1.58780646 -6.19228029 
H 31.6261101 2.99586940 -6.23466921 
O 32.2184219 0.999374270 -2.99370646 
H 31.3380642 0.883447051 -3.37342334 
H 32.8282928 0.891453385 -3.73361230 
O 33.8512497 0.969273984 -5.38466167 
H 34.2558861 1.84846652 -5.28929424 
H 34.5312500 0.388614476 -5.71588945 
15
substructure 5-mer 35 from 7-mer
O 31.0308933 3.52473974 -3.15031385 
H 31.6440563 2.82474852 -2.88202596 
H 30.2756157 3.02746582 -3.48775530 
O 29.6631279 1.34998333 -4.42692900 
H 30.2079067 1.56070101 -5.20509624 
H 28.9088459 0.864473045 -4.74862671 
O 34.7100830 3.55697274 -5.10098171 
H 35.2056198 4.03463125 -4.43962002 
H 33.8736305 4.03673506 -5.20727301 
O 32.2184219 0.999374270 -2.99370646 
H 31.3380642 0.883447051 -3.37342334 
H 32.8282928 0.891453385 -3.73361230 
O 33.8512497 0.969273984 -5.38466167 
H 34.2558861 1.84846652 -5.28929424 
H 34.5312500 0.388614476 -5.71588945 
15
substructure 5-mer 36 from 7-mer
O 31.0308933 3.52473974 -3.15031385 
H 31.6440563 2.82474852 -2.88202596 
H 30.2756157 3.02746582 -3.48775530 
O 31.4253330 2.06991553 -6.41565228 
H 32.2326660 1.58780646 -6.19228029 
H 31.6261101 2.99586940 -6.23466921 
O 34.7100830 3.55697274 -5.10098171 
H 35.2056198 4.03463125 -4.43962002 
H 33.8736305 4.03673506 -5.20727301 
O 32.2184219 0.999374270 -2.99370646 
H 31.3380642 0.883447051 -3.37342334 
H 32.8282928 0.891453385 -3.73361230 
O 33.8512497 0.969273984 -5.38466167 
H 34.2558861 1.84846652 -5.28929424 
H 34.5312500 0.388614476 -5.71588945 
15
substructure 5-mer 37 from 7-mer
O 32.1644554 4.67093897 -5.32993603 
H 31.7534714 4.34262657 -4.50951004 
H 31.7744274 5.52063179 -5.51524210 
O 29.6631279 1.34998333 -4.42692900 
H 30.2079067 1.56070101 -5.20509624 
H 28.9088459 0.864473045 -4.74862671 
O 31.4253330 2.06991553 -6.41565228 
H 32.2326660 1.58780646 -6.19228029 
H 31.6261101 2.99586940 -6.23466921 
O 34.7100830 3.55697274 -5.10098171 
H 35.2056198 4.03463125 -4.43962002 
H 33.8736305 4.03673506 -5.20727301 
O 32.2184219 0.999374270 -2.99370646 
H 31.3380642 0.883447051 -3.37342334 
H 32.8282928 0.891453385 -3.73361230 
15
substructure 5-mer 38 from 7-mer
O 32.1644554 4.67093897 -5.32993603 
H 31.7534714 4.34262657 -4.50951004 
H 31.7744274 5.52063179 -5.51524210 
O 29.6631279 1.34998333 -4.42692900 
H 30.2079067 1.56070101 -5.20509624 
H 28.9088459 0.864473045 -4.74862671 
O 31.4253330 2.06991553 -6.41565228 
H 32.2326660 1.58780646 -6.19228029 
H 31.6261101 2.99586940 -6.23466921 
O 34.7100830 3.55697274 -5.10098171 
H 35.2056198 4.03463125 -4.43962002 
H 33.8736305 4.03673506 -5.20727301 
O 33.8512497 0.969273984 -5.38466167 
H 34.2558861 1.84846652 -5.28929424 
H 34.5312500 0.388614476 -5.71588945 
15
substructure 5-mer 39 from 7-mer
O 32.1644554 4.67093897 -5.32993603 
H 31.7534714 4.34262657 -4.50951004 
H 31.7744274 5.52063179 -5.51524210 
O 29.6631279 1.34998333 -4.42692900 
H 30.2079067 1.56070101 -5.20509624 
H 28.9088459 0.864473045 -4.74862671 
O 31.4253330 2.06991553 -6.41565228 
H 32.2326660 1.58780646 -6.19228029 
H 31.6261101 2.99586940 -6.23466921 
O 32.2184219 0.999374270 -2.99370646 
H 31.3380642 0.883447051 -3.37342334 
H 32.8282928 0.891453385 -3.73361230 
O 33.8512497 0.969273984 -5.38466167 
H 34.2558861 1.84846652 -5.28929424 
H 34.5312500 0.388614476 -5.71588945 
15
substructure 5-mer 40 from 7-mer
O 32.1644554 4.67093897 -5.32993603 
H 31.7534714 4.34262657 -4.50951004 
H 31.7744274 5.52063179 -5.51524210 
O 29.6631279 1.34998333 -4.42692900 
H 30.2079067 1.56070101 -5.20509624 
H 28.9088459 0.864473045 -4.74862671 
O 34.7100830 3.55697274 -5.10098171 
H 35.2056198 4.03463125 -4.43962002 
H 33.8736305 4.03673506 -5.20727301 
O 32.2184219 0.999374270 -2.99370646 
H 31.3380642 0.883447051 -3.37342334 
H 32.8282928 0.891453385 -3.73361230 
O 33.8512497 0.969273984 -5.38466167 
H 34.2558861 1.84846652 -5.28929424 
H 34.5312500 0.388614476 -5.71588945 
15
substructure 5-mer 41 from 7-mer
O 32.1644554 4.67093897 -5.32993603 
H 31.7534714 4.34262657 -4.50951004 
H 31.7744274 5.52063179 -5.51524210 
O 31.4253330 2.06991553 -6.41565228 
H 32.2326660 1.58780646 -6.19228029 
H 31.6261101 2.99586940 -6.23466921 
O 34.7100830 3.55697274 -5.10098171 
H 35.2056198 4.03463125 -4.43962002 
H 33.8736305 4.03673506 -5.20727301 
O 32.2184219 0.999374270 -2.99370646 
H 31.3380642 0.883447051 -3.37342334 
H 32.8282928 0.891453385 -3.73361230 
O 33.8512497 0.969273984 -5.38466167 
H 34.2558861 1.84846652 -5.28929424 
H 34.5312500 0.388614476 -5.71588945 
15
substructure 5-mer 42 from 7-mer
O 29.6631279 1.34998333 -4.42692900 
H 30.2079067 1.56070101 -5.20509624 
H 28.9088459 0.864473045 -4.74862671 
O 31.4253330 2.06991553 -6.41565228 
H 32.2326660 1.58780646 -6.19228029 
H 31.6261101 2.99586940 -6.23466921 
O 34.7100830 3.55697274 -5.10098171 
H 35.2056198 4.03463125 -4.43962002 
H 33.8736305 4.03673506 -5.20727301 
O 32.2184219 0.999374270 -2.99370646 
H 31.3380642 0.883447051 -3.37342334 
H 32.8282928 0.891453385 -3.73361230 
O 33.8512497 0.969273984 -5.38466167 
H 34.2558861 1.84846652 -5.28929424 
H 34.5312500 0.388614476 -5.71588945 
15
substructure 5-mer 43 from 7-mer
O 33.9702606 4.12692070 -5.46295691 
H 33.1053314 3.84976578 -5.81293344 
H 34.4497948 4.48629379 -6.20394659 
O 34.1392822 2.70040798 -3.16840863 
H 34.1566963 3.20283985 -4.00341702 
H 35.0452499 2.56692314 -2.90399790 
O 32.3453712 0.549602687 -6.79258394 
H 32.0966072 -0.309002370 -7.12449169 
H 32.3907967 0.457954198 -5.82610035 
O 32.3050957 0.624257803 -4.02322435 
H 31.4921341 1.13916361 -3.93765497 
H 33.0036316 1.20198154 -3.69349575 
O 31.8390236 4.01844740 -2.26293850 
H 32.6742668 3.56704044 -2.46061301 
H 32.0295830 4.95223331 -2.32786036 
15
substructure 5-mer 44 from 7-mer
O 33.9702606 4.12692070 -5.46295691 
H 33.1053314 3.84976578 -5.81293344 
H 34.4497948 4.48629379 -6.20394659 
O 34.1392822 2.70040798 -3.16840863 
H 34.1566963 3.20283985 -4.00341702 
H 35.0452499 2.56692314 -2.90399790 
O 32.3453712 0.549602687 -6.79258394 
H 32.0966072 -0.309002370 -7.12449169 
H 32.3907967 0.457954198 -5.82610035 
O 32.3050957 0.624257803 -4.02322435 
H 31.4921341 1.13916361 -3.93765497 
H 33.0036316 1.20198154 -3.69349575 
O 31.5637302 3.18691063 -6.33436394 
H 30.9708462 3.04328704 -5.58757162 
H 31.8014030 2.30206943 -6.65033054 
15
substructure 5-mer 45 from 7-mer
O 33.9702606 4.12692070 -5.46295691 
H 33.1053314 3.84976578 -5.81293344 
H 34.4497948 4.48629379 -6.20394659 
O 34.1392822 2.70040798 -3.16840863 
H 34.1566963 3.20283985 -4.00341702 
H 35.0452499 2.56692314 -2.90399790 
O 32.3453712 0.549602687 -6.79258394 
H 32.0966072 -0.309002370 -7.12449169 
H 32.3907967 0.457954198 -5.82610035 
O 32.3050957 0.624257803 -4.02322435 
H 31.4921341 1.13916361 -3.93765497 
H 33.0036316 1.20198154 -3.69349575 
O 30.1692638 2.55009723 -3.88037491 
H 30.6688538 3.10784674 -3.26050544 
H 29.2743416 2.51156664 -3.55340624 
15
substructure 5-mer 46 from 7-mer
O 33.9702606 4.12692070 -5.46295691 
H 33.1053314 3.84976578 -5.81293344 
H 34.4497948 4.48629379 -6.20394659 
O 34.1392822 2.70040798 -3.16840863 
H 34.1566963 3.20283985 -4.00341702 
H 35.0452499 2.56692314 -2.90399790 
O 32.3453712 0.549602687 -6.79258394 
H 32.0966072 -0.309002370 -7.12449169 
H 32.3907967 0.457954198 -5.82610035 
O 31.8390236 4.01844740 -2.26293850 
H 32.6742668 3.56704044 -2.46061301 
H 32.0295830 4.95223331 -2.32786036 
O 31.5637302 3.18691063 -6.33436394 
H 30.9708462 3.04328704 -5.58757162 
H 31.8014030 2.30206943 -6.65033054 
15
substructure 5-mer 47 from 7-mer
O 33.9702606 4.12692070 -5.46295691 
H 33.1053314 3.84976578 -5.81293344 
H 34.4497948 4.48629379 -6.20394659 
O 34.1392822 2.70040798 -3.16840863 
H 34.1566963 3.20283985 -4.00341702 
H 35.0452499 2.56692314 -2.90399790 
O 32.3453712 0.549602687 -6.79258394 
H 32.0966072 -0.309002370 -7.12449169 
H 32.3907967 0.457954198 -5.82610035 
O 31.8390236 4.01844740 -2.26293850 
H 32.6742668 3.56704044 -2.46061301 
H 32.0295830 4.95223331 -2.32786036 
O 30.1692638 2.55009723 -3.88037491 
H 30.6688538 3.10784674 -3.26050544 
H 29.2743416 2.51156664 -3.55340624 
15
substructure 5-mer 48 from 7-mer
O 33.9702606 4.12692070 -5.46295691 
H 33.1053314 3.84976578 -5.81293344 
H 34.4497948 4.48629379 -6.20394659 
O 34.1392822 2.70040798 -3.16840863 
H 34.1566963 3.20283985 -4.00341702 
H 35.0452499 2.56692314 -2.90399790 
O 32.3453712 0.549602687 -6.79258394 
H 32.0966072 -0.309002370 -7.12449169 
H 32.3907967 0.457954198 -5.82610035 
O 31.5637302 3.18691063 -6.33436394 
H 30.9708462 3.04328704 -5.58757162 
H 31.8014030 2.30206943 -6.65033054 
O 30.1692638 2.55009723 -3.88037491 
H 30.6688538 3.10784674 -3.26050544 
H 29.2743416 2.51156664 -3.55340624 
15
substructure 5-mer 49 from 7-mer
O 33.9702606 4.12692070 -5.46295691 
H 33.1053314 3.84976578 -5.81293344 
H 34.4497948 4.48629379 -6.20394659 
O 34.1392822 2.70040798 -3.16840863 
H 34.1566963 3.20283985 -4.00341702 
H 35.0452499 2.56692314 -2.90399790 
O 32.3050957 0.624257803 -4.02322435 
H 31.4921341 1.13916361 -3.93765497 
H 33.0036316 1.20198154 -3.69349575 
O 31.8390236 4.01844740 -2.26293850 
H 32.6742668 3.56704044 -2.46061301 
H 32.0295830 4.95223331 -2.32786036 
O 31.5637302 3.18691063 -6.33436394 
H 30.9708462 3.04328704 -5.58757162 
H 31.8014030 2.30206943 -6.65033054 
15
substructure 5-mer 50 from 7-mer
O 33.9702606 4.12692070 -5.46295691 
H 33.1053314 3.84976578 -5.81293344 
H 34.4497948 4.48629379 -6.20394659 
O 34.1392822 2.70040798 -3.16840863 
H 34.1566963 3.20283985 -4.00341702 
H 35.0452499 2.56692314 -2.90399790 
O 32.3050957 0.624257803 -4.02322435 
H 31.4921341 1.13916361 -3.93765497 
H 33.0036316 1.20198154 -3.69349575 
O 31.8390236 4.01844740 -2.26293850 
H 32.6742668 3.56704044 -2.46061301 
H 32.0295830 4.95223331 -2.32786036 
O 30.1692638 2.55009723 -3.88037491 
H 30.6688538 3.10784674 -3.26050544 
H 29.2743416 2.51156664 -3.55340624 
15
substructure 5-mer 51 from 7-mer
O 33.9702606 4.12692070 -5.46295691 
H 33.1053314 3.84976578 -5.81293344 
H 34.4497948 4.48629379 -6.20394659 
O 34.1392822 2.70040798 -3.16840863 
H 34.1566963 3.20283985 -4.00341702 
H 35.0452499 2.56692314 -2.90399790 
O 32.3050957 0.624257803 -4.02322435 
H 31.4921341 1.13916361 -3.93765497 
H 33.0036316 1.20198154 -3.69349575 
O 31.5637302 3.18691063 -6.33436394 
H 30.9708462 3.04328704 -5.58757162 
H 31.8014030 2.30206943 -6.65033054 
O 30.1692638 2.55009723 -3.88037491 
H 30.6688538 3.10784674 -3.26050544 
H 29.2743416 2.51156664 -3.55340624 
15
substructure 5-mer 52 from 7-mer
O 33.9702606 4.12692070 -5.46295691 
H 33.1053314 3.84976578 -5.81293344 
H 34.4497948 4.48629379 -6.20394659 
O 34.1392822 2.70040798 -3.16840863 
H 34.1566963 3.20283985 -4.00341702 
H 35.0452499 2.56692314 -2.90399790 
O 31.8390236 4.01844740 -2.26293850 
H 32.6742668 3.56704044 -2.46061301 
H 32.0295830 4.95223331 -2.32786036 
O 31.5637302 3.18691063 -6.33436394 
H 30.9708462 3.04328704 -5.58757162 
H 31.8014030 2.30206943 -6.65033054 
O 30.1692638 2.55009723 -3.88037491 
H 30.6688538 3.10784674 -3.26050544 
H 29.2743416 2.51156664 -3.55340624 
15
substructure 5-mer 53 from 7-mer
O 33.9702606 4.12692070 -5.46295691 
H 33.1053314 3.84976578 -5.81293344 
H 34.4497948 4.48629379 -6.20394659 
O 32.3453712 0.549602687 -6.79258394 
H 32.0966072 -0.309002370 -7.12449169 
H 32.3907967 0.457954198 -5.82610035 
O 32.3050957 0.624257803 -4.02322435 
H 31.4921341 1.13916361 -3.93765497 
H 33.0036316 1.20198154 -3.69349575 
O 31.8390236 4.01844740 -2.26293850 
H 32.6742668 3.56704044 -2.46061301 
H 32.0295830 4.95223331 -2.32786036 
O 31.5637302 3.18691063 -6.33436394 
H 30.9708462 3.04328704 -5.58757162 
H 31.8014030 2.30206943 -6.65033054 
15
substructure 5-mer 54 from 7-mer
O 33.9702606 4.12692070 -5.46295691 
H 33.1053314 3.84976578 -5.81293344 
H 34.4497948 4.48629379 -6.20394659 
O 32.3453712 0.549602687 -6.79258394 
H 32.0966072 -0.309002370 -7.12449169 
H 32.3907967 0.457954198 -5.82610035 
O 32.3050957 0.624257803 -4.02322435 
H 31.4921341 1.13916361 -3.93765497 
H 33.0036316 1.20198154 -3.69349575 
O 31.8390236 4.01844740 -2.26293850 
H 32.6742668 3.56704044 -2.46061301 
H 32.0295830 4.95223331 -2.32786036 
O 30.1692638 2.55009723 -3.88037491 
H 30.6688538 3.10784674 -3.26050544 
H 29.2743416 2.51156664 -3.55340624 
15
substructure 5-mer 55 from 7-mer
O 33.9702606 4.12692070 -5.46295691 
H 33.1053314 3.84976578 -5.81293344 
H 34.4497948 4.48629379 -6.20394659 
O 32.3453712 0.549602687 -6.79258394 
H 32.0966072 -0.309002370 -7.12449169 
H 32.3907967 0.457954198 -5.82610035 
O 32.3050957 0.624257803 -4.02322435 
H 31.4921341 1.13916361 -3.93765497 
H 33.0036316 1.20198154 -3.69349575 
O 31.5637302 3.18691063 -6.33436394 
H 30.9708462 3.04328704 -5.58757162 
H 31.8014030 2.30206943 -6.65033054 
O 30.1692638 2.55009723 -3.88037491 
H 30.6688538 3.10784674 -3.26050544 
H 29.2743416 2.51156664 -3.55340624 
15
substructure 5-mer 56 from 7-mer
O 33.9702606 4.12692070 -5.46295691 
H 33.1053314 3.84976578 -5.81293344 
H 34.4497948 4.48629379 -6.20394659 
O 32.3453712 0.549602687 -6.79258394 
H 32.0966072 -0.309002370 -7.12449169 
H 32.3907967 0.457954198 -5.82610035 
O 31.8390236 4.01844740 -2.26293850 
H 32.6742668 3.56704044 -2.46061301 
H 32.0295830 4.95223331 -2.32786036 
O 31.5637302 3.18691063 -6.33436394 
H 30.9708462 3.04328704 -5.58757162 
H 31.8014030 2.30206943 -6.65033054 
O 30.1692638 2.55009723 -3.88037491 
H 30.6688538 3.10784674 -3.26050544 
H 29.2743416 2.51156664 -3.55340624 
15
substructure 5-mer 57 from 7-mer
O 33.9702606 4.12692070 -5.46295691 
H 33.1053314 3.84976578 -5.81293344 
H 34.4497948 4.48629379 -6.20394659 
O 32.3050957 0.624257803 -4.02322435 
H 31.4921341 1.13916361 -3.93765497 
H 33.0036316 1.20198154 -3.69349575 
O 31.8390236 4.01844740 -2.26293850 
H 32.6742668 3.56704044 -2.46061301 
H 32.0295830 4.95223331 -2.32786036 
O 31.5637302 3.18691063 -6.33436394 
H 30.9708462 3.04328704 -5.58757162 
H 31.8014030 2.30206943 -6.65033054 
O 30.1692638 2.55009723 -3.88037491 
H 30.6688538 3.10784674 -3.26050544 
H 29.2743416 2.51156664 -3.55340624 
15
substructure 5-mer 58 from 7-mer
O 34.1392822 2.70040798 -3.16840863 
H 34.1566963 3.20283985 -4.00341702 
H 35.0452499 2.56692314 -2.90399790 
O 32.3453712 0.549602687 -6.79258394 
H 32.0966072 -0.309002370 -7.12449169 
H 32.3907967 0.457954198 -5.82610035 
O 32.3050957 0.624257803 -4.02322435 
H 31.4921341 1.13916361 -3.93765497 
H 33.0036316 1.20198154 -3.69349575 
O 31.8390236 4.01844740 -2.26293850 
H 32.6742668 3.56704044 -2.46061301 
H 32.0295830 4.95223331 -2.32786036 
O 31.5637302 3.18691063 -6.33436394 
H 30.9708462 3.04328704 -5.58757162 
H 31.8014030 2.30206943 -6.65033054 
15
substructure 5-mer 59 from 7-mer
O 34.1392822 2.70040798 -3.16840863 
H 34.1566963 3.20283985 -4.00341702 
H 35.0452499 2.56692314 -2.90399790 
O 32.3453712 0.549602687 -6.79258394 
H 32.0966072 -0.309002370 -7.12449169 
H 32.3907967 0.457954198 -5.82610035 
O 32.3050957 0.624257803 -4.02322435 
H 31.4921341 1.13916361 -3.93765497 
H 33.0036316 1.20198154 -3.69349575 
O 31.8390236 4.01844740 -2.26293850 
H 32.6742668 3.56704044 -2.46061301 
H 32.0295830 4.95223331 -2.32786036 
O 30.1692638 2.55009723 -3.88037491 
H 30.6688538 3.10784674 -3.26050544 
H 29.2743416 2.51156664 -3.55340624 
15
substructure 5-mer 60 from 7-mer
O 34.1392822 2.70040798 -3.16840863 
H 34.1566963 3.20283985 -4.00341702 
H 35.0452499 2.56692314 -2.90399790 
O 32.3453712 0.549602687 -6.79258394 
H 32.0966072 -0.309002370 -7.12449169 
H 32.3907967 0.457954198 -5.82610035 
O 32.3050957 0.624257803 -4.02322435 
H 31.4921341 1.13916361 -3.93765497 
H 33.0036316 1.20198154 -3.69349575 
O 31.5637302 3.18691063 -6.33436394 
H 30.9708462 3.04328704 -5.58757162 
H 31.8014030 2.30206943 -6.65033054 
O 30.1692638 2.55009723 -3.88037491 
H 30.6688538 3.10784674 -3.26050544 
H 29.2743416 2.51156664 -3.55340624 
15
substructure 5-mer 61 from 7-mer
O 34.1392822 2.70040798 -3.16840863 
H 34.1566963 3.20283985 -4.00341702 
H 35.0452499 2.56692314 -2.90399790 
O 32.3453712 0.549602687 -6.79258394 
H 32.0966072 -0.309002370 -7.12449169 
H 32.3907967 0.457954198 -5.82610035 
O 31.8390236 4.01844740 -2.26293850 
H 32.6742668 3.56704044 -2.46061301 
H 32.0295830 4.95223331 -2.32786036 
O 31.5637302 3.18691063 -6.33436394 
H 30.9708462 3.04328704 -5.58757162 
H 31.8014030 2.30206943 -6.65033054 
O 30.1692638 2.55009723 -3.88037491 
H 30.6688538 3.10784674 -3.26050544 
H 29.2743416 2.51156664 -3.55340624 
15
substructure 5-mer 62 from 7-mer
O 34.1392822 2.70040798 -3.16840863 
H 34.1566963 3.20283985 -4.00341702 
H 35.0452499 2.56692314 -2.90399790 
O 32.3050957 0.624257803 -4.02322435 
H 31.4921341 1.13916361 -3.93765497 
H 33.0036316 1.20198154 -3.69349575 
O 31.8390236 4.01844740 -2.26293850 
H 32.6742668 3.56704044 -2.46061301 
H 32.0295830 4.95223331 -2.32786036 
O 31.5637302 3.18691063 -6.33436394 
H 30.9708462 3.04328704 -5.58757162 
H 31.8014030 2.30206943 -6.65033054 
O 30.1692638 2.55009723 -3.88037491 
H 30.6688538 3.10784674 -3.26050544 
H 29.2743416 2.51156664 -3.55340624 
15
substructure 5-mer 63 from 7-mer
O 32.3453712 0.549602687 -6.79258394 
H 32.0966072 -0.309002370 -7.12449169 
H 32.3907967 0.457954198 -5.82610035 
O 32.3050957 0.624257803 -4.02322435 
H 31.4921341 1.13916361 -3.93765497 
H 33.0036316 1.20198154 -3.69349575 
O 31.8390236 4.01844740 -2.26293850 
H 32.6742668 3.56704044 -2.46061301 
H 32.0295830 4.95223331 -2.32786036 
O 31.5637302 3.18691063 -6.33436394 
H 30.9708462 3.04328704 -5.58757162 
H 31.8014030 2.30206943 -6.65033054 
O 30.1692638 2.55009723 -3.88037491 
H 30.6688538 3.10784674 -3.26050544 
H 29.2743416 2.51156664 -3.55340624 
15
substructure 5-mer 64 from 7-mer
O 30.1214695 2.92771268 -5.84035873 
H 30.5077896 3.56553793 -5.22007990 
H 30.2936077 3.27420306 -6.71345186 
O 30.9553394 0.592246711 -4.66417503 
H 30.2972107 -9.68219936E-02 -4.70106506 
H 30.5807934 1.36182916 -5.12594366 
O 31.4519062 4.47827291 -3.93822217 
H 31.2743530 5.22518349 -3.37350583 
H 31.6560879 3.72443891 -3.35507154 
O 32.0842667 2.21507096 -2.57681704 
H 33.0374603 2.07210183 -2.65131807 
H 31.6738911 1.54998398 -3.14459729 
O 33.6476288 0.925162852 -5.60893726 
H 32.7408409 0.692533612 -5.37429380 
H 33.6394348 1.87661505 -5.79019308 
15
substructure 5-mer 65 from 7-mer
O 30.1214695 2.92771268 -5.84035873 
H 30.5077896 3.56553793 -5.22007990 
H 30.2936077 3.27420306 -6.71345186 
O 30.9553394 0.592246711 -4.66417503 
H 30.2972107 -9.68219936E-02 -4.70106506 
H 30.5807934 1.36182916 -5.12594366 
O 31.4519062 4.47827291 -3.93822217 
H 31.2743530 5.22518349 -3.37350583 
H 31.6560879 3.72443891 -3.35507154 
O 32.0842667 2.21507096 -2.57681704 
H 33.0374603 2.07210183 -2.65131807 
H 31.6738911 1.54998398 -3.14459729 
O 33.8833580 3.73690152 -5.33054829 
H 33.0881729 4.11867380 -4.94013023 
H 34.3765297 3.37626195 -4.58390379 
15
substructure 5-mer 66 from 7-mer
O 30.1214695 2.92771268 -5.84035873 
H 30.5077896 3.56553793 -5.22007990 
H 30.2936077 3.27420306 -6.71345186 
O 30.9553394 0.592246711 -4.66417503 
H 30.2972107 -9.68219936E-02 -4.70106506 
H 30.5807934 1.36182916 -5.12594366 
O 31.4519062 4.47827291 -3.93822217 
H 31.2743530 5.22518349 -3.37350583 
H 31.6560879 3.72443891 -3.35507154 
O 32.0842667 2.21507096 -2.57681704 
H 33.0374603 2.07210183 -2.65131807 
H 31.6738911 1.54998398 -3.14459729 
O 34.8014297 1.81440365 -3.28808951 
H 35.6430550 1.43381870 -3.05298710 
H 34.4948196 1.34078109 -4.08189058 
15
substructure 5-mer 67 from 7-mer
O 30.1214695 2.92771268 -5.84035873 
H 30.5077896 3.56553793 -5.22007990 
H 30.2936077 3.27420306 -6.71345186 
O 30.9553394 0.592246711 -4.66417503 
H 30.2972107 -9.68219936E-02 -4.70106506 
H 30.5807934 1.36182916 -5.12594366 
O 31.4519062 4.47827291 -3.93822217 
H 31.2743530 5.22518349 -3.37350583 
H 31.6560879 3.72443891 -3.35507154 
O 33.6476288 0.925162852 -5.60893726 
H 32.7408409 0.692533612 -5.37429380 
H 33.6394348 1.87661505 -5.79019308 
O 33.8833580 3.73690152 -5.33054829 
H 33.0881729 4.11867380 -4.94013023 
H 34.3765297 3.37626195 -4.58390379 
15
substructure 5-mer 68 from 7-mer
O 30.1214695 2.92771268 -5.84035873 
H 30.5077896 3.56553793 -5.22007990 
H 30.2936077 3.27420306 -6.71345186 
O 30.9553394 0.592246711 -4.66417503 
H 30.2972107 -9.68219936E-02 -4.70106506 
H 30.5807934 1.36182916 -5.12594366 
O 31.4519062 4.47827291 -3.93822217 
H 31.2743530 5.22518349 -3.37350583 
H 31.6560879 3.72443891 -3.35507154 
O 33.6476288 0.925162852 -5.60893726 
H 32.7408409 0.692533612 -5.37429380 
H 33.6394348 1.87661505 -5.79019308 
O 34.8014297 1.81440365 -3.28808951 
H 35.6430550 1.43381870 -3.05298710 
H 34.4948196 1.34078109 -4.08189058 
15
substructure 5-mer 69 from 7-mer
O 30.1214695 2.92771268 -5.84035873 
H 30.5077896 3.56553793 -5.22007990 
H 30.2936077 3.27420306 -6.71345186 
O 30.9553394 0.592246711 -4.66417503 
H 30.2972107 -9.68219936E-02 -4.70106506 
H 30.5807934 1.36182916 -5.12594366 
O 31.4519062 4.47827291 -3.93822217 
H 31.2743530 5.22518349 -3.37350583 
H 31.6560879 3.72443891 -3.35507154 
O 33.8833580 3.73690152 -5.33054829 
H 33.0881729 4.11867380 -4.94013023 
H 34.3765297 3.37626195 -4.58390379 
O 34.8014297 1.81440365 -3.28808951 
H 35.6430550 1.43381870 -3.05298710 
H 34.4948196 1.34078109 -4.08189058 
15
substructure 5-mer 70 from 7-mer
O 30.1214695 2.92771268 -5.84035873 
H 30.5077896 3.56553793 -5.22007990 
H 30.2936077 3.27420306 -6.71345186 
O 30.9553394 0.592246711 -4.66417503 
H 30.2972107 -9.68219936E-02 -4.70106506 
H 30.5807934 1.36182916 -5.12594366 
O 32.0842667 2.21507096 -2.57681704 
H 33.0374603 2.07210183 -2.65131807 
H 31.6738911 1.54998398 -3.14459729 
O 33.6476288 0.925162852 -5.60893726 
H 32.7408409 0.692533612 -5.37429380 
H 33.6394348 1.87661505 -5.79019308 
O 33.8833580 3.73690152 -5.33054829 
H 33.0881729 4.11867380 -4.94013023 
H 34.3765297 3.37626195 -4.58390379 
15
substructure 5-mer 71 from 7-mer
O 30.1214695 2.92771268 -5.84035873 
H 30.5077896 3.56553793 -5.22007990 
H 30.2936077 3.27420306 -6.71345186 
O 30.9553394 0.592246711 -4.66417503 
H 30.2972107 -9.68219936E-02 -4.70106506 
H 30.5807934 1.36182916 -5.12594366 
O 32.0842667 2.21507096 -2.57681704 
H 33.0374603 2.07210183 -2.65131807 
H 31.6738911 1.54998398 -3.14459729 
O 33.6476288 0.925162852 -5.60893726 
H 32.7408409 0.692533612 -5.37429380 
H 33.6394348 1.87661505 -5.79019308 
O 34.8014297 1.81440365 -3.28808951 
H 35.6430550 1.43381870 -3.05298710 
H 34.4948196 1.34078109 -4.08189058 
15
substructure 5-mer 72 from 7-mer
O 30.1214695 2.92771268 -5.84035873 
H 30.5077896 3.56553793 -5.22007990 
H 30.2936077 3.27420306 -6.71345186 
O 30.9553394 0.592246711 -4.66417503 
H 30.2972107 -9.68219936E-02 -4.70106506 
H 30.5807934 1.36182916 -5.12594366 
O 32.0842667 2.21507096 -2.57681704 
H 33.0374603 2.07210183 -2.65131807 
H 31.6738911 1.54998398 -3.14459729 
O 33.8833580 3.73690152 -5.33054829 
H 33.0881729 4.11867380 -4.94013023 
H 34.3765297 3.37626195 -4.58390379 
O 34.8014297 1.81440365 -3.28808951 
H 35.6430550 1.43381870 -3.05298710 
H 34.4948196 1.34078109 -4.08189058 
15
substructure 5-mer 73 from 7-mer
O 30.1214695 2.92771268 -5.84035873 
H 30.5077896 3.56553793 -5.22007990 
H 30.2936077 3.27420306 -6.71345186 
O 30.9553394 0.592246711 -4.66417503 
H 30.2972107 -9.68219936E-02 -4.70106506 
H 30.5807934 1.36182916 -5.12594366 
O 33.6476288 0.925162852 -5.60893726 
H 32.7408409 0.692533612 -5.37429380 
H 33.6394348 1.87661505 -5.79019308 
O 33.8833580 3.73690152 -5.33054829 
H 33.0881729 4.11867380 -4.94013023 
H 34.3765297 3.37626195 -4.58390379 
O 34.8014297 1.81440365 -3.28808951 
H 35.6430550 1.43381870 -3.05298710 
H 34.4948196 1.34078109 -4.08189058 
15
substructure 5-mer 74 from 7-mer
O 30.1214695 2.92771268 -5.84035873 
H 30.5077896 3.56553793 -5.22007990 
H 30.2936077 3.27420306 -6.71345186 
O 31.4519062 4.47827291 -3.93822217 
H 31.2743530 5.22518349 -3.37350583 
H 31.6560879 3.72443891 -3.35507154 
O 32.0842667 2.21507096 -2.57681704 
H 33.0374603 2.07210183 -2.65131807 
H 31.6738911 1.54998398 -3.14459729 
O 33.6476288 0.925162852 -5.60893726 
H 32.7408409 0.692533612 -5.37429380 
H 33.6394348 1.87661505 -5.79019308 
O 33.8833580 3.73690152 -5.33054829 
H 33.0881729 4.11867380 -4.94013023 
H 34.3765297 3.37626195 -4.58390379 
15
substructure 5-mer 75 from 7-mer
O 30.1214695 2.92771268 -5.84035873 
H 30.5077896 3.56553793 -5.22007990 
H 30.2936077 3.27420306 -6.71345186 
O 31.4519062 4.47827291 -3.93822217 
H 31.2743530 5.22518349 -3.37350583 
H 31.6560879 3.72443891 -3.35507154 
O 32.0842667 2.21507096 -2.57681704 
H 33.0374603 2.07210183 -2.65131807 
H 31.6738911 1.54998398 -3.14459729 
O 33.6476288 0.925162852 -5.60893726 
H 32.7408409 0.692533612 -5.37429380 
H 33.6394348 1.87661505 -5.79019308 
O 34.8014297 1.81440365 -3.28808951 
H 35.6430550 1.43381870 -3.05298710 
H 34.4948196 1.34078109 -4.08189058 
15
substructure 5-mer 76 from 7-mer
O 30.1214695 2.92771268 -5.84035873 
H 30.5077896 3.56553793 -5.22007990 
H 30.2936077 3.27420306 -6.71345186 
O 31.4519062 4.47827291 -3.93822217 
H 31.2743530 5.22518349 -3.37350583 
H 31.6560879 3.72443891 -3.35507154 
O 32.0842667 2.21507096 -2.57681704 
H 33.0374603 2.07210183 -2.65131807 
H 31.6738911 1.54998398 -3.14459729 
O 33.8833580 3.73690152 -5.33054829 
H 33.0881729 4.11867380 -4.94013023 
H 34.3765297 3.37626195 -4.58390379 
O 34.8014297 1.81440365 -3.28808951 
H 35.6430550 1.43381870 -3.05298710 
H 34.4948196 1.34078109 -4.08189058 
15
substructure 5-mer 77 from 7-mer
O 30.1214695 2.92771268 -5.84035873 
H 30.5077896 3.56553793 -5.22007990 
H 30.2936077 3.27420306 -6.71345186 
O 31.4519062 4.47827291 -3.93822217 
H 31.2743530 5.22518349 -3.37350583 
H 31.6560879 3.72443891 -3.35507154 
O 33.6476288 0.925162852 -5.60893726 
H 32.7408409 0.692533612 -5.37429380 
H 33.6394348 1.87661505 -5.79019308 
O 33.8833580 3.73690152 -5.33054829 
H 33.0881729 4.11867380 -4.94013023 
H 34.3765297 3.37626195 -4.58390379 
O 34.8014297 1.81440365 -3.28808951 
H 35.6430550 1.43381870 -3.05298710 
H 34.4948196 1.34078109 -4.08189058 
15
substructure 5-mer 78 from 7-mer
O 30.1214695 2.92771268 -5.84035873 
H 30.5077896 3.56553793 -5.22007990 
H 30.2936077 3.27420306 -6.71345186 
O 32.0842667 2.21507096 -2.57681704 
H 33.0374603 2.07210183 -2.65131807 
H 31.6738911 1.54998398 -3.14459729 
O 33.6476288 0.925162852 -5.60893726 
H 32.7408409 0.692533612 -5.37429380 
H 33.6394348 1.87661505 -5.79019308 
O 33.8833580 3.73690152 -5.33054829 
H 33.0881729 4.11867380 -4.94013023 
H 34.3765297 3.37626195 -4.58390379 
O 34.8014297 1.81440365 -3.28808951 
H 35.6430550 1.43381870 -3.05298710 
H 34.4948196 1.34078109 -4.08189058 
15
substructure 5-mer 79 from 7-mer
O 30.9553394 0.592246711 -4.66417503 
H 30.2972107 -9.68219936E-02 -4.70106506 
H 30.5807934 1.36182916 -5.12594366 
O 31.4519062 4.47827291 -3.93822217 
H 31.2743530 5.22518349 -3.37350583 
H 31.6560879 3.72443891 -3.35507154 
O 32.0842667 2.21507096 -2.57681704 
H 33.0374603 2.07210183 -2.65131807 
H 31.6738911 1.54998398 -3.14459729 
O 33.6476288 0.925162852 -5.60893726 
H 32.7408409 0.692533612 -5.37429380 
H 33.6394348 1.87661505 -5.79019308 
O 33.8833580 3.73690152 -5.33054829 
H 33.0881729 4.11867380 -4.94013023 
H 34.3765297 3.37626195 -4.58390379 
15
substructure 5-mer 80 from 7-mer
O 30.9553394 0.592246711 -4.66417503 
H 30.2972107 -9.68219936E-02 -4.70106506 
H 30.5807934 1.36182916 -5.12594366 
O 31.4519062 4.47827291 -3.93822217 
H 31.2743530 5.22518349 -3.37350583 
H 31.6560879 3.72443891 -3.35507154 
O 32.0842667 2.21507096 -2.57681704 
H 33.0374603 2.07210183 -2.65131807 
H 31.6738911 1.54998398 -3.14459729 
O 33.6476288 0.925162852 -5.60893726 
H 32.7408409 0.692533612 -5.37429380 
H 33.6394348 1.87661505 -5.79019308 
O 34.8014297 1.81440365 -3.28808951 
H 35.6430550 1.43381870 -3.05298710 
H 34.4948196 1.34078109 -4.08189058 
15
substructure 5-mer 81 from 7-mer
O 30.9553394 0.592246711 -4.66417503 
H 30.2972107 -9.68219936E-02 -4.70106506 
H 30.5807934 1.36182916 -5.12594366 
O 31.4519062 4.47827291 -3.93822217 
H 31.2743530 5.22518349 -3.37350583 
H 31.6560879 3.72443891 -3.35507154 
O 32.0842667 2.21507096 -2.57681704 
H 33.0374603 2.07210183 -2.65131807 
H 31.6738911 1.54998398 -3.14459729 
O 33.8833580 3.73690152 -5.33054829 
H 33.0881729 4.11867380 -4.94013023 
H 34.3765297 3.37626195 -4.58390379 
O 34.8014297 1.81440365 -3.28808951 
H 35.6430550 1.43381870 -3.05298710 
H 34.4948196 1.34078109 -4.08189058 
15
substructure 5-mer 82 from 7-mer
O 30.9553394 0.592246711 -4.66417503 
H 30.2972107 -9.68219936E-02 -4.70106506 
H 30.5807934 1.36182916 -5.12594366 
O 31.4519062 4.47827291 -3.93822217 
H 31.2743530 5.22518349 -3.37350583 
H 31.6560879 3.72443891 -3.35507154 
O 33.6476288 0.925162852 -5.60893726 
H 32.7408409 0.692533612 -5.37429380 
H 33.6394348 1.87661505 -5.79019308 
O 33.8833580 3.73690152 -5.33054829 
H 33.0881729 4.11867380 -4.94013023 
H 34.3765297 3.37626195 -4.58390379 
O 34.8014297 1.81440365 -3.28808951 
H 35.6430550 1.43381870 -3.05298710 
H 34.4948196 1.34078109 -4.08189058 
15
substructure 5-mer 83 from 7-mer
O 30.9553394 0.592246711 -4.66417503 
H 30.2972107 -9.68219936E-02 -4.70106506 
H 30.5807934 1.36182916 -5.12594366 
O 32.0842667 2.21507096 -2.57681704 
H 33.0374603 2.07210183 -2.65131807 
H 31.6738911 1.54998398 -3.14459729 
O 33.6476288 0.925162852 -5.60893726 
H 32.7408409 0.692533612 -5.37429380 
H 33.6394348 1.87661505 -5.79019308 
O 33.8833580 3.73690152 -5.33054829 
H 33.0881729 4.11867380 -4.94013023 
H 34.3765297 3.37626195 -4.58390379 
O 34.8014297 1.81440365 -3.28808951 
H 35.6430550 1.43381870 -3.05298710 
H 34.4948196 1.34078109 -4.08189058 
15
substructure 5-mer 84 from 7-mer
O 31.4519062 4.47827291 -3.93822217 
H 31.2743530 5.22518349 -3.37350583 
H 31.6560879 3.72443891 -3.35507154 
O 32.0842667 2.21507096 -2.57681704 
H 33.0374603 2.07210183 -2.65131807 
H 31.6738911 1.54998398 -3.14459729 
O 33.6476288 0.925162852 -5.60893726 
H 32.7408409 0.692533612 -5.37429380 
H 33.6394348 1.87661505 -5.79019308 
O 33.8833580 3.73690152 -5.33054829 
H 33.0881729 4.11867380 -4.94013023 
H 34.3765297 3.37626195 -4.58390379 
O 34.8014297 1.81440365 -3.28808951 
H 35.6430550 1.43381870 -3.05298710 
H 34.4948196 1.34078109 -4.08189058 
15
substructure 5-mer 85 from 7-mer
O 31.5693436 1.91814804 -2.18010235 
H 31.0108643 2.36982727 -2.82513213 
H 32.3237419 2.50418687 -2.04798794 
O 33.6671410 0.547449589 -3.47932434 
H 33.5308342 0.648669362 -4.42847633 
H 32.8220901 0.771198273 -3.06063247 
O 34.2351036 3.09031463 -2.58785605 
H 34.2210617 2.16023469 -2.87515259 
H 35.0012398 3.19068885 -2.02967954 
O 33.1603851 1.32561517 -6.22690773 
H 33.1484337 2.23512387 -5.87679863 
H 33.7742386 1.31824970 -6.95611572 
O 32.9448166 3.75760102 -5.02666759 
H 33.4320641 3.69651270 -4.19392490 
H 32.0083923 3.75716019 -4.78962183 
15
substructure 5-mer 86 from 7-mer
O 31.5693436 1.91814804 -2.18010235 
H 31.0108643 2.36982727 -2.82513213 
H 32.3237419 2.50418687 -2.04798794 
O 33.6671410 0.547449589 -3.47932434 
H 33.5308342 0.648669362 -4.42847633 
H 32.8220901 0.771198273 -3.06063247 
O 34.2351036 3.09031463 -2.58785605 
H 34.2210617 2.16023469 -2.87515259 
H 35.0012398 3.19068885 -2.02967954 
O 33.1603851 1.32561517 -6.22690773 
H 33.1484337 2.23512387 -5.87679863 
H 33.7742386 1.31824970 -6.95611572 
O 30.2114201 3.21891189 -4.35133362 
H 30.1758003 2.42209411 -4.90790653 
H 29.3770161 3.66744804 -4.45986509 
15
substructure 5-mer 87 from 7-mer
O 31.5693436 1.91814804 -2.18010235 
H 31.0108643 2.36982727 -2.82513213 
H 32.3237419 2.50418687 -2.04798794 
O 33.6671410 0.547449589 -3.47932434 
H 33.5308342 0.648669362 -4.42847633 
H 32.8220901 0.771198273 -3.06063247 
O 34.2351036 3.09031463 -2.58785605 
H 34.2210617 2.16023469 -2.87515259 
H 35.0012398 3.19068885 -2.02967954 
O 33.1603851 1.32561517 -6.22690773 
H 33.1484337 2.23512387 -5.87679863 
H 33.7742386 1.31824970 -6.95611572 
O 30.4202919 0.939432085 -5.86527300 
H 30.2391415 2.70136204E-02 -5.64982557 
H 31.3646717 0.980723619 -6.08274317 
15
substructure 5-mer 88 from 7-mer
O 31.5693436 1.91814804 -2.18010235 
H 31.0108643 2.36982727 -2.82513213 
H 32.3237419 2.50418687 -2.04798794 
O 33.6671410 0.547449589 -3.47932434 
H 33.5308342 0.648669362 -4.42847633 
H 32.8220901 0.771198273 -3.06063247 
O 34.2351036 3.09031463 -2.58785605 
H 34.2210617 2.16023469 -2.87515259 
H 35.0012398 3.19068885 -2.02967954 
O 32.9448166 3.75760102 -5.02666759 
H 33.4320641 3.69651270 -4.19392490 
H 32.0083923 3.75716019 -4.78962183 
O 30.2114201 3.21891189 -4.35133362 
H 30.1758003 2.42209411 -4.90790653 
H 29.3770161 3.66744804 -4.45986509 
15
substructure 5-mer 89 from 7-mer
O 31.5693436 1.91814804 -2.18010235 
H 31.0108643 2.36982727 -2.82513213 
H 32.3237419 2.50418687 -2.04798794 
O 33.6671410 0.547449589 -3.47932434 
H 33.5308342 0.648669362 -4.42847633 
H 32.8220901 0.771198273 -3.06063247 
O 34.2351036 3.09031463 -2.58785605 
H 34.2210617 2.16023469 -2.87515259 
H 35.0012398 3.19068885 -2.02967954 
O 32.9448166 3.75760102 -5.02666759 
H 33.4320641 3.69651270 -4.19392490 
H 32.0083923 3.75716019 -4.78962183 
O 30.4202919 0.939432085 -5.86527300 
H 30.2391415 2.70136204E-02 -5.64982557 
H 31.3646717 0.980723619 -6.08274317 
15
substructure 5-mer 90 from 7-mer
O 31.5693436 1.91814804 -2.18010235 
H 31.0108643 2.36982727 -2.82513213 
H 32.3237419 2.50418687 -2.04798794 
O 33.6671410 0.547449589 -3.47932434 
H 33.5308342 0.648669362 -4.42847633 
H 32.8220901 0.771198273 -3.06063247 
O 34.2351036 3.09031463 -2.58785605 
H 34.2210617 2.16023469 -2.87515259 
H 35.0012398 3.19068885 -2.02967954 
O 30.2114201 3.21891189 -4.35133362 
H 30.1758003 2.42209411 -4.90790653 
H 29.3770161 3.66744804 -4.45986509 
O 30.4202919 0.939432085 -5.86527300 
H 30.2391415 2.70136204E-02 -5.64982557 
H 31.3646717 0.980723619 -6.08274317 
15
substructure 5-mer 91 from 7-mer
O 31.5693436 1.91814804 -2.18010235 
H 31.0108643 2.36982727 -2.82513213 
H 32.3237419 2.50418687 -2.04798794 
O 33.6671410 0.547449589 -3.47932434 
H 33.5308342 0.648669362 -4.42847633 
H 32.8220901 0.771198273 -3.06063247 
O 33.1603851 1.32561517 -6.22690773 
H 33.1484337 2.23512387 -5.87679863 
H 33.7742386 1.31824970 -6.95611572 
O 32.9448166 3.75760102 -5.02666759 
H 33.4320641 3.69651270 -4.19392490 
H 32.0083923 3.75716019 -4.78962183 
O 30.2114201 3.21891189 -4.35133362 
H 30.1758003 2.42209411 -4.90790653 
H 29.3770161 3.66744804 -4.45986509 
15
substructure 5-mer 92 from 7-mer
O 31.5693436 1.91814804 -2.18010235 
H 31.0108643 2.36982727 -2.82513213 
H 32.3237419 2.50418687 -2.04798794 
O 33.6671410 0.547449589 -3.47932434 
H 33.5308342 0.648669362 -4.42847633 
H 32.8220901 0.771198273 -3.06063247 
O 33.1603851 1.32561517 -6.22690773 
H 33.1484337 2.23512387 -5.87679863 
H 33.7742386 1.31824970 -6.95611572 
O 32.9448166 3.75760102 -5.02666759 
H 33.4320641 3.69651270 -4.19392490 
H 32.0083923 3.75716019 -4.78962183 
O 30.4202919 0.939432085 -5.86527300 
H 30.2391415 2.70136204E-02 -5.64982557 
H 31.3646717 0.980723619 -6.08274317 
15
substructure 5-mer 93 from 7-mer
O 31.5693436 1.91814804 -2.18010235 
H 31.0108643 2.36982727 -2.82513213 
H 32.3237419 2.50418687 -2.04798794 
O 33.6671410 0.547449589 -3.47932434 
H 33.5308342 0.648669362 -4.42847633 
H 32.8220901 0.771198273 -3.06063247 
O 33.1603851 1.32561517 -6.22690773 
H 33.1484337 2.23512387 -5.87679863 
H 33.7742386 1.31824970 -6.95611572 
O 30.2114201 3.21891189 -4.35133362 
H 30.1758003 2.42209411 -4.90790653 
H 29.3770161 3.66744804 -4.45986509 
O 30.4202919 0.939432085 -5.86527300 
H 30.2391415 2.70136204E-02 -5.64982557 
H 31.3646717 0.980723619 -6.08274317 
15
substructure 5-mer 94 from 7-mer
O 31.5693436 1.91814804 -2.18010235 
H 31.0108643 2.36982727 -2.82513213 
H 32.3237419 2.50418687 -2.04798794 
O 33.6671410 0.547449589 -3.47932434 
H 33.5308342 0.648669362 -4.42847633 
H 32.8220901 0.771198273 -3.06063247 
O 32.9448166 3.75760102 -5.02666759 
H 33.4320641 3.69651270 -4.19392490 
H 32.0083923 3.75716019 -4.78962183 
O 30.2114201 3.21891189 -4.35133362 
H 30.1758003 2.42209411 -4.90790653 
H 29.3770161 3.66744804 -4.45986509 
O 30.4202919 0.939432085 -5.86527300 
H 30.2391415 2.70136204E-02 -5.64982557 
H 31.3646717 0.980723619 -6.08274317 
15
substructure 5-mer 95 from 7-mer
O 31.5693436 1.91814804 -2.18010235 
H 31.0108643 2.36982727 -2.82513213 
H 32.3237419 2.50418687 -2.04798794 
O 34.2351036 3.09031463 -2.58785605 
H 34.2210617 2.16023469 -2.87515259 
H 35.0012398 3.19068885 -2.02967954 
O 33.1603851 1.32561517 -6.22690773 
H 33.1484337 2.23512387 -5.87679863 
H 33.7742386 1.31824970 -6.95611572 
O 32.9448166 3.75760102 -5.02666759 
H 33.4320641 3.69651270 -4.19392490 
H 32.0083923 3.75716019 -4.78962183 
O 30.2114201 3.21891189 -4.35133362 
H 30.1758003 2.42209411 -4.90790653 
H 29.3770161 3.66744804 -4.45986509 
15
substructure 5-mer 96 from 7-mer
O 31.5693436 1.91814804 -2.18010235 
H 31.0108643 2.36982727 -2.82513213 
H 32.3237419 2.50418687 -2.04798794 
O 34.2351036 3.09031463 -2.58785605 
H 34.2210617 2.16023469 -2.87515259 
H 35.0012398 3.19068885 -2.02967954 
O 33.1603851 1.32561517 -6.22690773 
H 33.1484337 2.23512387 -5.87679863 
H 33.7742386 1.31824970 -6.95611572 
O 32.9448166 3.75760102 -5.02666759 
H 33.4320641 3.69651270 -4.19392490 
H 32.0083923 3.75716019 -4.78962183 
O 30.4202919 0.939432085 -5.86527300 
H 30.2391415 2.70136204E-02 -5.64982557 
H 31.3646717 0.980723619 -6.08274317 
15
substructure 5-mer 97 from 7-mer
O 31.5693436 1.91814804 -2.18010235 
H 31.0108643 2.36982727 -2.82513213 
H 32.3237419 2.50418687 -2.04798794 
O 34.2351036 3.09031463 -2.58785605 
H 34.2210617 2.16023469 -2.87515259 
H 35.0012398 3.19068885 -2.02967954 
O 33.1603851 1.32561517 -6.22690773 
H 33.1484337 2.23512387 -5.87679863 
H 33.7742386 1.31824970 -6.95611572 
O 30.2114201 3.21891189 -4.35133362 
H 30.1758003 2.42209411 -4.90790653 
H 29.3770161 3.66744804 -4.45986509 
O 30.4202919 0.939432085 -5.86527300 
H 30.2391415 2.70136204E-02 -5.64982557 
H 31.3646717 0.980723619 -6.08274317 
15
substructure 5-mer 98 from 7-mer
O 31.5693436 1.91814804 -2.18010235 
H 31.0108643 2.36982727 -2.82513213 
H 32.3237419 2.50418687 -2.04798794 
O 34.2351036 3.09031463 -2.58785605 
H 34.2210617 2.16023469 -2.87515259 
H 35.0012398 3.19068885 -2.02967954 
O 32.9448166 3.75760102 -5.02666759 
H 33.4320641 3.69651270 -4.19392490 
H 32.0083923 3.75716019 -4.78962183 
O 30.2114201 3.21891189 -4.35133362 
H 30.1758003 2.42209411 -4.90790653 
H 29.3770161 3.66744804 -4.45986509 
O 30.4202919 0.939432085 -5.86527300 
H 30.2391415 2.70136204E-02 -5.64982557 
H 31.3646717 0.980723619 -6.08274317 
15
substructure 5-mer 99 from 7-mer
O 31.5693436 1.91814804 -2.18010235 
H 31.0108643 2.36982727 -2.82513213 
H 32.3237419 2.50418687 -2.04798794 
O 33.1603851 1.32561517 -6.22690773 
H 33.1484337 2.23512387 -5.87679863 
H 33.7742386 1.31824970 -6.95611572 
O 32.9448166 3.75760102 -5.02666759 
H 33.4320641 3.69651270 -4.19392490 
H 32.0083923 3.75716019 -4.78962183 
O 30.2114201 3.21891189 -4.35133362 
H 30.1758003 2.42209411 -4.90790653 
H 29.3770161 3.66744804 -4.45986509 
O 30.4202919 0.939432085 -5.86527300 
H 30.2391415 2.70136204E-02 -5.64982557 
H 31.3646717 0.980723619 -6.08274317 
15
substructure 5-mer 100 from 7-mer
O 33.6671410 0.547449589 -3.47932434 
H 33.5308342 0.648669362 -4.42847633 
H 32.8220901 0.771198273 -3.06063247 
O 34.2351036 3.09031463 -2.58785605 
H 34.2210617 2.16023469 -2.87515259 
H 35.0012398 3.19068885 -2.02967954 
O 33.1603851 1.32561517 -6.22690773 
H 33.1484337 2.23512387 -5.87679863 
H 33.7742386 1.31824970 -6.95611572 
O 32.9448166 3.75760102 -5.02666759 
H 33.4320641 3.69651270 -4.19392490 
H 32.0083923 3.75716019 -4.78962183 
O 30.2114201 3.21891189 -4.35133362 
H 30.1758003 2.42209411 -4.90790653 
H 29.3770161 3.66744804 -4.45986509 
15
substructure 5-mer 101 from 7-mer
O 33.6671410 0.547449589 -3.47932434 
H 33.5308342 0.648669362 -4.42847633 
H 32.8220901 0.771198273 -3.06063247 
O 34.2351036 3.09031463 -2.58785605 
H 34.2210617 2.16023469 -2.87515259 
H 35.0012398 3.19068885 -2.02967954 
O 33.1603851 1.32561517 -6.22690773 
H 33.1484337 2.23512387 -5.87679863 
H 33.7742386 1.31824970 -6.95611572 
O 32.9448166 3.75760102 -5.02666759 
H 33.4320641 3.69651270 -4.19392490 
H 32.0083923 3.75716019 -4.78962183 
O 30.4202919 0.939432085 -5.86527300 
H 30.2391415 2.70136204E-02 -5.64982557 
H 31.3646717 0.980723619 -6.08274317 
15
substructure 5-mer 102 from 7-mer
O 33.6671410 0.547449589 -3.47932434 
H 33.5308342 0.648669362 -4.42847633 
H 32.8220901 0.771198273 -3.06063247 
O 34.2351036 3.09031463 -2.58785605 
H 34.2210617 2.16023469 -2.87515259 
H 35.0012398 3.19068885 -2.02967954 
O 33.1603851 1.32561517 -6.22690773 
H 33.1484337 2.23512387 -5.87679863 
H 33.7742386 1.31824970 -6.95611572 
O 30.2114201 3.21891189 -4.35133362 
H 30.1758003 2.42209411 -4.90790653 
H 29.3770161 3.66744804 -4.45986509 
O 30.4202919 0.939432085 -5.86527300 
H 30.2391415 2.70136204E-02 -5.64982557 
H 31.3646717 0.980723619 -6.08274317 
15
substructure 5-mer 103 from 7-mer
O 33.6671410 0.547449589 -3.47932434 
H 33.5308342 0.648669362 -4.42847633 
H 32.8220901 0.771198273 -3.06063247 
O 34.2351036 3.09031463 -2.58785605 
H 34.2210617 2.16023469 -2.87515259 
H 35.0012398 3.19068885 -2.02967954 
O 32.9448166 3.75760102 -5.02666759 
H 33.4320641 3.69651270 -4.19392490 
H 32.0083923 3.75716019 -4.78962183 
O 30.2114201 3.21891189 -4.35133362 
H 30.1758003 2.42209411 -4.90790653 
H 29.3770161 3.66744804 -4.45986509 
O 30.4202919 0.939432085 -5.86527300 
H 30.2391415 2.70136204E-02 -5.64982557 
H 31.3646717 0.980723619 -6.08274317 
15
substructure 5-mer 104 from 7-mer
O 33.6671410 0.547449589 -3.47932434 
H 33.5308342 0.648669362 -4.42847633 
H 32.8220901 0.771198273 -3.06063247 
O 33.1603851 1.32561517 -6.22690773 
H 33.1484337 2.23512387 -5.87679863 
H 33.7742386 1.31824970 -6.95611572 
O 32.9448166 3.75760102 -5.02666759 
H 33.4320641 3.69651270 -4.19392490 
H 32.0083923 3.75716019 -4.78962183 
O 30.2114201 3.21891189 -4.35133362 
H 30.1758003 2.42209411 -4.90790653 
H 29.3770161 3.66744804 -4.45986509 
O 30.4202919 0.939432085 -5.86527300 
H 30.2391415 2.70136204E-02 -5.64982557 
H 31.3646717 0.980723619 -6.08274317 
15
substructure 5-mer 105 from 7-mer
O 34.2351036 3.09031463 -2.58785605 
H 34.2210617 2.16023469 -2.87515259 
H 35.0012398 3.19068885 -2.02967954 
O 33.1603851 1.32561517 -6.22690773 
H 33.1484337 2.23512387 -5.87679863 
H 33.7742386 1.31824970 -6.95611572 
O 32.9448166 3.75760102 -5.02666759 
H 33.4320641 3.69651270 -4.19392490 
H 32.0083923 3.75716019 -4.78962183 
O 30.2114201 3.21891189 -4.35133362 
H 30.1758003 2.42209411 -4.90790653 
H 29.3770161 3.66744804 -4.45986509 
O 30.4202919 0.939432085 -5.86527300 
H 30.2391415 2.70136204E-02 -5.64982557 
H 31.3646717 0.980723619 -6.08274317 
15
substructure 5-mer 106 from 7-mer
O 32.0433197 3.56034136 -0.954110324 
H 32.0973320 3.71045113 -1.44028598E-02 
H 31.9846458 2.59705305 -1.07075953 
O 30.3909092 2.10541177 -3.92793465 
H 30.8916817 2.92987537 -3.97223425 
H 30.6702747 1.70066082 -3.09624863 
O 32.3434067 4.17557526 -3.61092782 
H 32.5199165 5.09657621 -3.78190136 
H 32.2596626 4.08303499 -2.64550424 
O 31.4106483 -1.48631060 -3.03259516 
H 31.8606663 -2.32452583 -3.11225295 
H 31.5041466 -1.05305099 -3.89425731 
O 31.6609802 0.150638744 -5.34839869 
H 31.1154671 0.854721606 -4.95388126 
H 31.4047184 8.77316371E-02 -6.26446009 
15
substructure 5-mer 107 from 7-mer
O 32.0433197 3.56034136 -0.954110324 
H 32.0973320 3.71045113 -1.44028598E-02 
H 31.9846458 2.59705305 -1.07075953 
O 30.3909092 2.10541177 -3.92793465 
H 30.8916817 2.92987537 -3.97223425 
H 30.6702747 1.70066082 -3.09624863 
O 32.3434067 4.17557526 -3.61092782 
H 32.5199165 5.09657621 -3.78190136 
H 32.2596626 4.08303499 -2.64550424 
O 31.4106483 -1.48631060 -3.03259516 
H 31.8606663 -2.32452583 -3.11225295 
H 31.5041466 -1.05305099 -3.89425731 
O 31.9779644 0.941349208 -1.77458966 
H 32.7007828 1.13920927 -2.39138412 
H 31.7207642 3.17635983E-02 -1.96920371 
15
substructure 5-mer 108 from 7-mer
O 32.0433197 3.56034136 -0.954110324 
H 32.0973320 3.71045113 -1.44028598E-02 
H 31.9846458 2.59705305 -1.07075953 
O 30.3909092 2.10541177 -3.92793465 
H 30.8916817 2.92987537 -3.97223425 
H 30.6702747 1.70066082 -3.09624863 
O 32.3434067 4.17557526 -3.61092782 
H 32.5199165 5.09657621 -3.78190136 
H 32.2596626 4.08303499 -2.64550424 
O 31.4106483 -1.48631060 -3.03259516 
H 31.8606663 -2.32452583 -3.11225295 
H 31.5041466 -1.05305099 -3.89425731 
O 33.7147217 1.62169182 -3.86036944 
H 33.3908768 2.53017282 -3.91514111 
H 33.2011719 1.11884797 -4.50434828 
15
substructure 5-mer 109 from 7-mer
O 32.0433197 3.56034136 -0.954110324 
H 32.0973320 3.71045113 -1.44028598E-02 
H 31.9846458 2.59705305 -1.07075953 
O 30.3909092 2.10541177 -3.92793465 
H 30.8916817 2.92987537 -3.97223425 
H 30.6702747 1.70066082 -3.09624863 
O 32.3434067 4.17557526 -3.61092782 
H 32.5199165 5.09657621 -3.78190136 
H 32.2596626 4.08303499 -2.64550424 
O 31.6609802 0.150638744 -5.34839869 
H 31.1154671 0.854721606 -4.95388126 
H 31.4047184 8.77316371E-02 -6.26446009 
O 31.9779644 0.941349208 -1.77458966 
H 32.7007828 1.13920927 -2.39138412 
H 31.7207642 3.17635983E-02 -1.96920371 
15
substructure 5-mer 110 from 7-mer
O 32.0433197 3.56034136 -0.954110324 
H 32.0973320 3.71045113 -1.44028598E-02 
H 31.9846458 2.59705305 -1.07075953 
O 30.3909092 2.10541177 -3.92793465 
H 30.8916817 2.92987537 -3.97223425 
H 30.6702747 1.70066082 -3.09624863 
O 32.3434067 4.17557526 -3.61092782 
H 32.5199165 5.09657621 -3.78190136 
H 32.2596626 4.08303499 -2.64550424 
O 31.6609802 0.150638744 -5.34839869 
H 31.1154671 0.854721606 -4.95388126 
H 31.4047184 8.77316371E-02 -6.26446009 
O 33.7147217 1.62169182 -3.86036944 
H 33.3908768 2.53017282 -3.91514111 
H 33.2011719 1.11884797 -4.50434828 
15
substructure 5-mer 111 from 7-mer
O 32.0433197 3.56034136 -0.954110324 
H 32.0973320 3.71045113 -1.44028598E-02 
H 31.9846458 2.59705305 -1.07075953 
O 30.3909092 2.10541177 -3.92793465 
H 30.8916817 2.92987537 -3.97223425 
H 30.6702747 1.70066082 -3.09624863 
O 32.3434067 4.17557526 -3.61092782 
H 32.5199165 5.09657621 -3.78190136 
H 32.2596626 4.08303499 -2.64550424 
O 31.9779644 0.941349208 -1.77458966 
H 32.7007828 1.13920927 -2.39138412 
H 31.7207642 3.17635983E-02 -1.96920371 
O 33.7147217 1.62169182 -3.86036944 
H 33.3908768 2.53017282 -3.91514111 
H 33.2011719 1.11884797 -4.50434828 
15
substructure 5-mer 112 from 7-mer
O 32.0433197 3.56034136 -0.954110324 
H 32.0973320 3.71045113 -1.44028598E-02 
H 31.9846458 2.59705305 -1.07075953 
O 30.3909092 2.10541177 -3.92793465 
H 30.8916817 2.92987537 -3.97223425 
H 30.6702747 1.70066082 -3.09624863 
O 31.4106483 -1.48631060 -3.03259516 
H 31.8606663 -2.32452583 -3.11225295 
H 31.5041466 -1.05305099 -3.89425731 
O 31.6609802 0.150638744 -5.34839869 
H 31.1154671 0.854721606 -4.95388126 
H 31.4047184 8.77316371E-02 -6.26446009 
O 31.9779644 0.941349208 -1.77458966 
H 32.7007828 1.13920927 -2.39138412 
H 31.7207642 3.17635983E-02 -1.96920371 
15
substructure 5-mer 113 from 7-mer
O 32.0433197 3.56034136 -0.954110324 
H 32.0973320 3.71045113 -1.44028598E-02 
H 31.9846458 2.59705305 -1.07075953 
O 30.3909092 2.10541177 -3.92793465 
H 30.8916817 2.92987537 -3.97223425 
H 30.6702747 1.70066082 -3.09624863 
O 31.4106483 -1.48631060 -3.03259516 
H 31.8606663 -2.32452583 -3.11225295 
H 31.5041466 -1.05305099 -3.89425731 
O 31.6609802 0.150638744 -5.34839869 
H 31.1154671 0.854721606 -4.95388126 
H 31.4047184 8.77316371E-02 -6.26446009 
O 33.7147217 1.62169182 -3.86036944 
H 33.3908768 2.53017282 -3.91514111 
H 33.2011719 1.11884797 -4.50434828 
15
substructure 5-mer 114 from 7-mer
O 32.0433197 3.56034136 -0.954110324 
H 32.0973320 3.71045113 -1.44028598E-02 
H 31.9846458 2.59705305 -1.07075953 
O 30.3909092 2.10541177 -3.92793465 
H 30.8916817 2.92987537 -3.97223425 
H 30.6702747 1.70066082 -3.09624863 
O 31.4106483 -1.48631060 -3.03259516 
H 31.8606663 -2.32452583 -3.11225295 
H 31.5041466 -1.05305099 -3.89425731 
O 31.9779644 0.941349208 -1.77458966 
H 32.7007828 1.13920927 -2.39138412 
H 31.7207642 3.17635983E-02 -1.96920371 
O 33.7147217 1.62169182 -3.86036944 
H 33.3908768 2.53017282 -3.91514111 
H 33.2011719 1.11884797 -4.50434828 
15
substructure 5-mer 115 from 7-mer
O 32.0433197 3.56034136 -0.954110324 
H 32.0973320 3.71045113 -1.44028598E-02 
H 31.9846458 2.59705305 -1.07075953 
O 30.3909092 2.10541177 -3.92793465 
H 30.8916817 2.92987537 -3.97223425 
H 30.6702747 1.70066082 -3.09624863 
O 31.6609802 0.150638744 -5.34839869 
H 31.1154671 0.854721606 -4.95388126 
H 31.4047184 8.77316371E-02 -6.26446009 
O 31.9779644 0.941349208 -1.77458966 
H 32.7007828 1.13920927 -2.39138412 
H 31.7207642 3.17635983E-02 -1.96920371 
O 33.7147217 1.62169182 -3.86036944 
H 33.3908768 2.53017282 -3.91514111 
H 33.2011719 1.11884797 -4.50434828 
15
substructure 5-mer 116 from 7-mer
O 32.0433197 3.56034136 -0.954110324 
H 32.0973320 3.71045113 -1.44028598E-02 
H 31.9846458 2.59705305 -1.07075953 
O 32.3434067 4.17557526 -3.61092782 
H 32.5199165 5.09657621 -3.78190136 
H 32.2596626 4.08303499 -2.64550424 
O 31.4106483 -1.48631060 -3.03259516 
H 31.8606663 -2.32452583 -3.11225295 
H 31.5041466 -1.05305099 -3.89425731 
O 31.6609802 0.150638744 -5.34839869 
H 31.1154671 0.854721606 -4.95388126 
H 31.4047184 8.77316371E-02 -6.26446009 
O 31.9779644 0.941349208 -1.77458966 
H 32.7007828 1.13920927 -2.39138412 
H 31.7207642 3.17635983E-02 -1.96920371 
15
substructure 5-mer 117 from 7-mer
O 32.0433197 3.56034136 -0.954110324 
H 32.0973320 3.71045113 -1.44028598E-02 
H 31.9846458 2.59705305 -1.07075953 
O 32.3434067 4.17557526 -3.61092782 
H 32.5199165 5.09657621 -3.78190136 
H 32.2596626 4.08303499 -2.64550424 
O 31.4106483 -1.48631060 -3.03259516 
H 31.8606663 -2.32452583 -3.11225295 
H 31.5041466 -1.05305099 -3.89425731 
O 31.6609802 0.150638744 -5.34839869 
H 31.1154671 0.854721606 -4.95388126 
H 31.4047184 8.77316371E-02 -6.26446009 
O 33.7147217 1.62169182 -3.86036944 
H 33.3908768 2.53017282 -3.91514111 
H 33.2011719 1.11884797 -4.50434828 
15
substructure 5-mer 118 from 7-mer
O 32.0433197 3.56034136 -0.954110324 
H 32.0973320 3.71045113 -1.44028598E-02 
H 31.9846458 2.59705305 -1.07075953 
O 32.3434067 4.17557526 -3.61092782 
H 32.5199165 5.09657621 -3.78190136 
H 32.2596626 4.08303499 -2.64550424 
O 31.4106483 -1.48631060 -3.03259516 
H 31.8606663 -2.32452583 -3.11225295 
H 31.5041466 -1.05305099 -3.89425731 
O 31.9779644 0.941349208 -1.77458966 
H 32.7007828 1.13920927 -2.39138412 
H 31.7207642 3.17635983E-02 -1.96920371 
O 33.7147217 1.62169182 -3.86036944 
H 33.3908768 2.53017282 -3.91514111 
H 33.2011719 1.11884797 -4.50434828 
15
substructure 5-mer 119 from 7-mer
O 32.0433197 3.56034136 -0.954110324 
H 32.0973320 3.71045113 -1.44028598E-02 
H 31.9846458 2.59705305 -1.07075953 
O 32.3434067 4.17557526 -3.61092782 
H 32.5199165 5.09657621 -3.78190136 
H 32.2596626 4.08303499 -2.64550424 
O 31.6609802 0.150638744 -5.34839869 
H 31.1154671 0.854721606 -4.95388126 
H 31.4047184 8.77316371E-02 -6.26446009 
O 31.9779644 0.941349208 -1.77458966 
H 32.7007828 1.13920927 -2.39138412 
H 31.7207642 3.17635983E-02 -1.96920371 
O 33.7147217 1.62169182 -3.86036944 
H 33.3908768 2.53017282 -3.91514111 
H 33.2011719 1.11884797 -4.50434828 
15
substructure 5-mer 120 from 7-mer
O 32.0433197 3.56034136 -0.954110324 
H 32.0973320 3.71045113 -1.44028598E-02 
H 31.9846458 2.59705305 -1.07075953 
O 31.4106483 -1.48631060 -3.03259516 
H 31.8606663 -2.32452583 -3.11225295 
H 31.5041466 -1.05305099 -3.89425731 
O 31.6609802 0.150638744 -5.34839869 
H 31.1154671 0.854721606 -4.95388126 
H 31.4047184 8.77316371E-02 -6.26446009 
O 31.9779644 0.941349208 -1.77458966 
H 32.7007828 1.13920927 -2.39138412 
H 31.7207642 3.17635983E-02 -1.96920371 
O 33.7147217 1.62169182 -3.86036944 
H 33.3908768 2.53017282 -3.91514111 
H 33.2011719 1.11884797 -4.50434828 
15
substructure 5-mer 121 from 7-mer
O 30.3909092 2.10541177 -3.92793465 
H 30.8916817 2.92987537 -3.97223425 
H 30.6702747 1.70066082 -3.09624863 
O 32.3434067 4.17557526 -3.61092782 
H 32.5199165 5.09657621 -3.78190136 
H 32.2596626 4.08303499 -2.64550424 
O 31.4106483 -1.48631060 -3.03259516 
H 31.8606663 -2.32452583 -3.11225295 
H 31.5041466 -1.05305099 -3.89425731 
O 31.6609802 0.150638744 -5.34839869 
H 31.1154671 0.854721606 -4.95388126 
H 31.4047184 8.77316371E-02 -6.26446009 
O 31.9779644 0.941349208 -1.77458966 
H 32.7007828 1.13920927 -2.39138412 
H 31.7207642 3.17635983E-02 -1.96920371 
15
substructure 5-mer 122 from 7-mer
O 30.3909092 2.10541177 -3.92793465 
H 30.8916817 2.92987537 -3.97223425 
H 30.6702747 1.70066082 -3.09624863 
O 32.3434067 4.17557526 -3.61092782 
H 32.5199165 5.09657621 -3.78190136 
H 32.2596626 4.08303499 -2.64550424 
O 31.4106483 -1.48631060 -3.03259516 
H 31.8606663 -2.32452583 -3.11225295 
H 31.5041466 -1.05305099 -3.89425731 
O 31.6609802 0.150638744 -5.34839869 
H 31.1154671 0.854721606 -4.95388126 
H 31.4047184 8.77316371E-02 -6.26446009 
O 33.7147217 1.62169182 -3.86036944 
H 33.3908768 2.53017282 -3.91514111 
H 33.2011719 1.11884797 -4.50434828 
15
substructure 5-mer 123 from 7-mer
O 30.3909092 2.10541177 -3.92793465 
H 30.8916817 2.92987537 -3.97223425 
H 30.6702747 1.70066082 -3.09624863 
O 32.3434067 4.17557526 -3.61092782 
H 32.5199165 5.09657621 -3.78190136 
H 32.2596626 4.08303499 -2.64550424 
O 31.4106483 -1.48631060 -3.03259516 
H 31.8606663 -2.32452583 -3.11225295 
H 31.5041466 -1.05305099 -3.89425731 
O 31.9779644 0.941349208 -1.77458966 
H 32.7007828 1.13920927 -2.39138412 
H 31.7207642 3.17635983E-02 -1.96920371 
O 33.7147217 1.62169182 -3.86036944 
H 33.3908768 2.53017282 -3.91514111 
H 33.2011719 1.11884797 -4.50434828 
15
substructure 5-mer 124 from 7-mer
O 30.3909092 2.10541177 -3.92793465 
H 30.8916817 2.92987537 -3.97223425 
H 30.6702747 1.70066082 -3.09624863 
O 32.3434067 4.17557526 -3.61092782 
H 32.5199165 5.09657621 -3.78190136 
H 32.2596626 4.08303499 -2.64550424 
O 31.6609802 0.150638744 -5.34839869 
H 31.1154671 0.854721606 -4.95388126 
H 31.4047184 8.77316371E-02 -6.26446009 
O 31.9779644 0.941349208 -1.77458966 
H 32.7007828 1.13920927 -2.39138412 
H 31.7207642 3.17635983E-02 -1.96920371 
O 33.7147217 1.62169182 -3.86036944 
H 33.3908768 2.53017282 -3.91514111 
H 33.2011719 1.11884797 -4.50434828 
15
substructure 5-mer 125 from 7-mer
O 30.3909092 2.10541177 -3.92793465 
H 30.8916817 2.92987537 -3.97223425 
H 30.6702747 1.70066082 -3.09624863 
O 31.4106483 -1.48631060 -3.03259516 
H 31.8606663 -2.32452583 -3.11225295 
H 31.5041466 -1.05305099 -3.89425731 
O 31.6609802 0.150638744 -5.34839869 
H 31.1154671 0.854721606 -4.95388126 
H 31.4047184 8.77316371E-02 -6.26446009 
O 31.9779644 0.941349208 -1.77458966 
H 32.7007828 1.13920927 -2.39138412 
H 31.7207642 3.17635983E-02 -1.96920371 
O 33.7147217 1.62169182 -3.86036944 
H 33.3908768 2.53017282 -3.91514111 
H 33.2011719 1.11884797 -4.50434828 
15
substructure 5-mer 126 from 7-mer
O 32.3434067 4.17557526 -3.61092782 
H 32.5199165 5.09657621 -3.78190136 
H 32.2596626 4.08303499 -2.64550424 
O 31.4106483 -1.48631060 -3.03259516 
H 31.8606663 -2.32452583 -3.11225295 
H 31.5041466 -1.05305099 -3.89425731 
O 31.6609802 0.150638744 -5.34839869 
H 31.1154671 0.854721606 -4.95388126 
H 31.4047184 8.77316371E-02 -6.26446009 
O 31.9779644 0.941349208 -1.77458966 
H 32.7007828 1.13920927 -2.39138412 
H 31.7207642 3.17635983E-02 -1.96920371 
O 33.7147217 1.62169182 -3.86036944 
H 33.3908768 2.53017282 -3.91514111 
H 33.2011719 1.11884797 -4.50434828 
15
substructure 5-mer 127 from 7-mer
O 17.1157131 2.01135874 -5.12053728 
H 17.4943619 2.51990962 -5.84812117 
H 16.4434719 2.59077096 -4.72759390 
O 18.7778091 3.25340819 -3.06915426 
H 18.4583778 2.70785046 -3.79986072 
H 18.1941528 3.03129673 -2.33261156 
O 16.6827793 0.215500996 -3.08977652 
H 16.8527908 0.703649342 -3.91303682 
H 16.6469231 -0.705997229 -3.33048797 
O 17.8975201 5.51179790 -4.32494259 
H 18.3141079 4.79151106 -3.81840110 
H 18.2544193 6.32729769 -3.98379469 
O 18.0863323 4.05171394 -6.76164579 
H 18.0358391 4.66632986 -6.01423502 
H 17.7413158 4.52757931 -7.51398134 
15
substructure 5-mer 128 from 7-mer
O 17.1157131 2.01135874 -5.12053728 
H 17.4943619 2.51990962 -5.84812117 
H 16.4434719 2.59077096 -4.72759390 
O 18.7778091 3.25340819 -3.06915426 
H 18.4583778 2.70785046 -3.79986072 
H 18.1941528 3.03129673 -2.33261156 
O 16.6827793 0.215500996 -3.08977652 
H 16.8527908 0.703649342 -3.91303682 
H 16.6469231 -0.705997229 -3.33048797 
O 17.8975201 5.51179790 -4.32494259 
H 18.3141079 4.79151106 -3.81840110 
H 18.2544193 6.32729769 -3.98379469 
O 16.5794239 2.40634608 -1.44234753 
H 16.5760708 1.56030035 -1.92385888 
H 16.3029232 2.21324182 -0.550782502 
15
substructure 5-mer 129 from 7-mer
O 17.1157131 2.01135874 -5.12053728 
H 17.4943619 2.51990962 -5.84812117 
H 16.4434719 2.59077096 -4.72759390 
O 18.7778091 3.25340819 -3.06915426 
H 18.4583778 2.70785046 -3.79986072 
H 18.1941528 3.03129673 -2.33261156 
O 16.6827793 0.215500996 -3.08977652 
H 16.8527908 0.703649342 -3.91303682 
H 16.6469231 -0.705997229 -3.33048797 
O 17.8975201 5.51179790 -4.32494259 
H 18.3141079 4.79151106 -3.81840110 
H 18.2544193 6.32729769 -3.98379469 
O 15.5432034 3.86584949 -3.73665762 
H 15.7652321 3.49897480 -2.87103248 
H 16.1761036 4.57753897 -3.89225554 
15
substructure 5-mer 130 from 7-mer
O 17.1157131 2.01135874 -5.12053728 
H 17.4943619 2.51990962 -5.84812117 
H 16.4434719 2.59077096 -4.72759390 
O 18.7778091 3.25340819 -3.06915426 
H 18.4583778 2.70785046 -3.79986072 
H 18.1941528 3.03129673 -2.33261156 
O 16.6827793 0.215500996 -3.08977652 
H 16.8527908 0.703649342 -3.91303682 
H 16.6469231 -0.705997229 -3.33048797 
O 18.0863323 4.05171394 -6.76164579 
H 18.0358391 4.66632986 -6.01423502 
H 17.7413158 4.52757931 -7.51398134 
O 16.5794239 2.40634608 -1.44234753 
H 16.5760708 1.56030035 -1.92385888 
H 16.3029232 2.21324182 -0.550782502 
15
substructure 5-mer 131 from 7-mer
O 17.1157131 2.01135874 -5.12053728 
H 17.4943619 2.51990962 -5.84812117 
H 16.4434719 2.59077096 -4.72759390 
O 18.7778091 3.25340819 -3.06915426 
H 18.4583778 2.70785046 -3.79986072 
H 18.1941528 3.03129673 -2.33261156 
O 16.6827793 0.215500996 -3.08977652 
H 16.8527908 0.703649342 -3.91303682 
H 16.6469231 -0.705997229 -3.33048797 
O 18.0863323 4.05171394 -6.76164579 
H 18.0358391 4.66632986 -6.01423502 
H 17.7413158 4.52757931 -7.51398134 
O 15.5432034 3.86584949 -3.73665762 
H 15.7652321 3.49897480 -2.87103248 
H 16.1761036 4.57753897 -3.89225554 
15
substructure 5-mer 132 from 7-mer
O 17.1157131 2.01135874 -5.12053728 
H 17.4943619 2.51990962 -5.84812117 
H 16.4434719 2.59077096 -4.72759390 
O 18.7778091 3.25340819 -3.06915426 
H 18.4583778 2.70785046 -3.79986072 
H 18.1941528 3.03129673 -2.33261156 
O 16.6827793 0.215500996 -3.08977652 
H 16.8527908 0.703649342 -3.91303682 
H 16.6469231 -0.705997229 -3.33048797 
O 16.5794239 2.40634608 -1.44234753 
H 16.5760708 1.56030035 -1.92385888 
H 16.3029232 2.21324182 -0.550782502 
O 15.5432034 3.86584949 -3.73665762 
H 15.7652321 3.49897480 -2.87103248 
H 16.1761036 4.57753897 -3.89225554 
15
substructure 5-mer 133 from 7-mer
O 17.1157131 2.01135874 -5.12053728 
H 17.4943619 2.51990962 -5.84812117 
H 16.4434719 2.59077096 -4.72759390 
O 18.7778091 3.25340819 -3.06915426 
H 18.4583778 2.70785046 -3.79986072 
H 18.1941528 3.03129673 -2.33261156 
O 17.8975201 5.51179790 -4.32494259 
H 18.3141079 4.79151106 -3.81840110 
H 18.2544193 6.32729769 -3.98379469 
O 18.0863323 4.05171394 -6.76164579 
H 18.0358391 4.66632986 -6.01423502 
H 17.7413158 4.52757931 -7.51398134 
O 16.5794239 2.40634608 -1.44234753 
H 16.5760708 1.56030035 -1.92385888 
H 16.3029232 2.21324182 -0.550782502 
15
substructure 5-mer 134 from 7-mer
O 17.1157131 2.01135874 -5.12053728 
H 17.4943619 2.51990962 -5.84812117 
H 16.4434719 2.59077096 -4.72759390 
O 18.7778091 3.25340819 -3.06915426 
H 18.4583778 2.70785046 -3.79986072 
H 18.1941528 3.03129673 -2.33261156 
O 17.8975201 5.51179790 -4.32494259 
H 18.3141079 4.79151106 -3.81840110 
H 18.2544193 6.32729769 -3.98379469 
O 18.0863323 4.05171394 -6.76164579 
H 18.0358391 4.66632986 -6.01423502 
H 17.7413158 4.52757931 -7.51398134 
O 15.5432034 3.86584949 -3.73665762 
H 15.7652321 3.49897480 -2.87103248 
H 16.1761036 4.57753897 -3.89225554 
15
substructure 5-mer 135 from 7-mer
O 17.1157131 2.01135874 -5.12053728 
H 17.4943619 2.51990962 -5.84812117 
H 16.4434719 2.59077096 -4.72759390 
O 18.7778091 3.25340819 -3.06915426 
H 18.4583778 2.70785046 -3.79986072 
H 18.1941528 3.03129673 -2.33261156 
O 17.8975201 5.51179790 -4.32494259 
H 18.3141079 4.79151106 -3.81840110 
H 18.2544193 6.32729769 -3.98379469 
O 16.5794239 2.40634608 -1.44234753 
H 16.5760708 1.56030035 -1.92385888 
H 16.3029232 2.21324182 -0.550782502 
O 15.5432034 3.86584949 -3.73665762 
H 15.7652321 3.49897480 -2.87103248 
H 16.1761036 4.57753897 -3.89225554 
15
substructure 5-mer 136 from 7-mer
O 17.1157131 2.01135874 -5.12053728 
H 17.4943619 2.51990962 -5.84812117 
H 16.4434719 2.59077096 -4.72759390 
O 18.7778091 3.25340819 -3.06915426 
H 18.4583778 2.70785046 -3.79986072 
H 18.1941528 3.03129673 -2.33261156 
O 18.0863323 4.05171394 -6.76164579 
H 18.0358391 4.66632986 -6.01423502 
H 17.7413158 4.52757931 -7.51398134 
O 16.5794239 2.40634608 -1.44234753 
H 16.5760708 1.56030035 -1.92385888 
H 16.3029232 2.21324182 -0.550782502 
O 15.5432034 3.86584949 -3.73665762 
H 15.7652321 3.49897480 -2.87103248 
H 16.1761036 4.57753897 -3.89225554 
15
substructure 5-mer 137 from 7-mer
O 17.1157131 2.01135874 -5.12053728 
H 17.4943619 2.51990962 -5.84812117 
H 16.4434719 2.59077096 -4.72759390 
O 16.6827793 0.215500996 -3.08977652 
H 16.8527908 0.703649342 -3.91303682 
H 16.6469231 -0.705997229 -3.33048797 
O 17.8975201 5.51179790 -4.32494259 
H 18.3141079 4.79151106 -3.81840110 
H 18.2544193 6.32729769 -3.98379469 
O 18.0863323 4.05171394 -6.76164579 
H 18.0358391 4.66632986 -6.01423502 
H 17.7413158 4.52757931 -7.51398134 
O 16.5794239 2.40634608 -1.44234753 
H 16.5760708 1.56030035 -1.92385888 
H 16.3029232 2.21324182 -0.550782502 
15
substructure 5-mer 138 from 7-mer
O 17.1157131 2.01135874 -5.12053728 
H 17.4943619 2.51990962 -5.84812117 
H 16.4434719 2.59077096 -4.72759390 
O 16.6827793 0.215500996 -3.08977652 
H 16.8527908 0.703649342 -3.91303682 
H 16.6469231 -0.705997229 -3.33048797 
O 17.8975201 5.51179790 -4.32494259 
H 18.3141079 4.79151106 -3.81840110 
H 18.2544193 6.32729769 -3.98379469 
O 18.0863323 4.05171394 -6.76164579 
H 18.0358391 4.66632986 -6.01423502 
H 17.7413158 4.52757931 -7.51398134 
O 15.5432034 3.86584949 -3.73665762 
H 15.7652321 3.49897480 -2.87103248 
H 16.1761036 4.57753897 -3.89225554 
15
substructure 5-mer 139 from 7-mer
O 17.1157131 2.01135874 -5.12053728 
H 17.4943619 2.51990962 -5.84812117 
H 16.4434719 2.59077096 -4.72759390 
O 16.6827793 0.215500996 -3.08977652 
H 16.8527908 0.703649342 -3.91303682 
H 16.6469231 -0.705997229 -3.33048797 
O 17.8975201 5.51179790 -4.32494259 
H 18.3141079 4.79151106 -3.81840110 
H 18.2544193 6.32729769 -3.98379469 
O 16.5794239 2.40634608 -1.44234753 
H 16.5760708 1.56030035 -1.92385888 
H 16.3029232 2.21324182 -0.550782502 
O 15.5432034 3.86584949 -3.73665762 
H 15.7652321 3.49897480 -2.87103248 
H 16.1761036 4.57753897 -3.89225554 
15
substructure 5-mer 140 from 7-mer
O 17.1157131 2.01135874 -5.12053728 
H 17.4943619 2.51990962 -5.84812117 
H 16.4434719 2.59077096 -4.72759390 
O 16.6827793 0.215500996 -3.08977652 
H 16.8527908 0.703649342 -3.91303682 
H 16.6469231 -0.705997229 -3.33048797 
O 18.0863323 4.05171394 -6.76164579 
H 18.0358391 4.66632986 -6.01423502 
H 17.7413158 4.52757931 -7.51398134 
O 16.5794239 2.40634608 -1.44234753 
H 16.5760708 1.56030035 -1.92385888 
H 16.3029232 2.21324182 -0.550782502 
O 15.5432034 3.86584949 -3.73665762 
H 15.7652321 3.49897480 -2.87103248 
H 16.1761036 4.57753897 -3.89225554 
15
substructure 5-mer 141 from 7-mer
O 17.1157131 2.01135874 -5.12053728 
H 17.4943619 2.51990962 -5.84812117 
H 16.4434719 2.59077096 -4.72759390 
O 17.8975201 5.51179790 -4.32494259 
H 18.3141079 4.79151106 -3.81840110 
H 18.2544193 6.32729769 -3.98379469 
O 18.0863323 4.05171394 -6.76164579 
H 18.0358391 4.66632986 -6.01423502 
H 17.7413158 4.52757931 -7.51398134 
O 16.5794239 2.40634608 -1.44234753 
H 16.5760708 1.56030035 -1.92385888 
H 16.3029232 2.21324182 -0.550782502 
O 15.5432034 3.86584949 -3.73665762 
H 15.7652321 3.49897480 -2.87103248 
H 16.1761036 4.57753897 -3.89225554 
15
substructure 5-mer 142 from 7-mer
O 18.7778091 3.25340819 -3.06915426 
H 18.4583778 2.70785046 -3.79986072 
H 18.1941528 3.03129673 -2.33261156 
O 16.6827793 0.215500996 -3.08977652 
H 16.8527908 0.703649342 -3.91303682 
H 16.6469231 -0.705997229 -3.33048797 
O 17.8975201 5.51179790 -4.32494259 
H 18.3141079 4.79151106 -3.81840110 
H 18.2544193 6.32729769 -3.98379469 
O 18.0863323 4.05171394 -6.76164579 
H 18.0358391 4.66632986 -6.01423502 
H 17.7413158 4.52757931 -7.51398134 
O 16.5794239 2.40634608 -1.44234753 
H 16.5760708 1.56030035 -1.92385888 
H 16.3029232 2.21324182 -0.550782502 
15
substructure 5-mer 143 from 7-mer
O 18.7778091 3.25340819 -3.06915426 
H 18.4583778 2.70785046 -3.79986072 
H 18.1941528 3.03129673 -2.33261156 
O 16.6827793 0.215500996 -3.08977652 
H 16.8527908 0.703649342 -3.91303682 
H 16.6469231 -0.705997229 -3.33048797 
O 17.8975201 5.51179790 -4.32494259 
H 18.3141079 4.79151106 -3.81840110 
H 18.2544193 6.32729769 -3.98379469 
O 18.0863323 4.05171394 -6.76164579 
H 18.0358391 4.66632986 -6.01423502 
H 17.7413158 4.52757931 -7.51398134 
O 15.5432034 3.86584949 -3.73665762 
H 15.7652321 3.49897480 -2.87103248 
H 16.1761036 4.57753897 -3.89225554 
15
substructure 5-mer 144 from 7-mer
O 18.7778091 3.25340819 -3.06915426 
H 18.4583778 2.70785046 -3.79986072 
H 18.1941528 3.03129673 -2.33261156 
O 16.6827793 0.215500996 -3.08977652 
H 16.8527908 0.703649342 -3.91303682 
H 16.6469231 -0.705997229 -3.33048797 
O 17.8975201 5.51179790 -4.32494259 
H 18.3141079 4.79151106 -3.81840110 
H 18.2544193 6.32729769 -3.98379469 
O 16.5794239 2.40634608 -1.44234753 
H 16.5760708 1.56030035 -1.92385888 
H 16.3029232 2.21324182 -0.550782502 
O 15.5432034 3.86584949 -3.73665762 
H 15.7652321 3.49897480 -2.87103248 
H 16.1761036 4.57753897 -3.89225554 
15
substructure 5-mer 145 from 7-mer
O 18.7778091 3.25340819 -3.06915426 
H 18.4583778 2.70785046 -3.79986072 
H 18.1941528 3.03129673 -2.33261156 
O 16.6827793 0.215500996 -3.08977652 
H 16.8527908 0.703649342 -3.91303682 
H 16.6469231 -0.705997229 -3.33048797 
O 18.0863323 4.05171394 -6.76164579 
H 18.0358391 4.66632986 -6.01423502 
H 17.7413158 4.52757931 -7.51398134 
O 16.5794239 2.40634608 -1.44234753 
H 16.5760708 1.56030035 -1.92385888 
H 16.3029232 2.21324182 -0.550782502 
O 15.5432034 3.86584949 -3.73665762 
H 15.7652321 3.49897480 -2.87103248 
H 16.1761036 4.57753897 -3.89225554 
15
substructure 5-mer 146 from 7-mer
O 18.7778091 3.25340819 -3.06915426 
H 18.4583778 2.70785046 -3.79986072 
H 18.1941528 3.03129673 -2.33261156 
O 17.8975201 5.51179790 -4.32494259 
H 18.3141079 4.79151106 -3.81840110 
H 18.2544193 6.32729769 -3.98379469 
O 18.0863323 4.05171394 -6.76164579 
H 18.0358391 4.66632986 -6.01423502 
H 17.7413158 4.52757931 -7.51398134 
O 16.5794239 2.40634608 -1.44234753 
H 16.5760708 1.56030035 -1.92385888 
H 16.3029232 2.21324182 -0.550782502 
O 15.5432034 3.86584949 -3.73665762 
H 15.7652321 3.49897480 -2.87103248 
H 16.1761036 4.57753897 -3.89225554 
15
substructure 5-mer 147 from 7-mer
O 16.6827793 0.215500996 -3.08977652 
H 16.8527908 0.703649342 -3.91303682 
H 16.6469231 -0.705997229 -3.33048797 
O 17.8975201 5.51179790 -4.32494259 
H 18.3141079 4.79151106 -3.81840110 
H 18.2544193 6.32729769 -3.98379469 
O 18.0863323 4.05171394 -6.76164579 
H 18.0358391 4.66632986 -6.01423502 
H 17.7413158 4.52757931 -7.51398134 
O 16.5794239 2.40634608 -1.44234753 
H 16.5760708 1.56030035 -1.92385888 
H 16.3029232 2.21324182 -0.550782502 
O 15.5432034 3.86584949 -3.73665762 
H 15.7652321 3.49897480 -2.87103248 
H 16.1761036 4.57753897 -3.89225554 
15
substructure 5-mer 148 from 7-mer
O 38.9253387 -4.87717009 -7.48773813 
H 38.8928070 -4.01487398 -7.08303928 
H 38.0014114 -5.15242815 -7.61241817 
O 37.9590874 -8.41941738 -7.11880970 
H 38.8124313 -8.15936470 -7.48848581 
H 37.4227371 -7.61727762 -7.16887760 
O 40.0699081 -7.12817144 -8.55893326 
H 39.7841301 -6.28001356 -8.17602348 
H 41.0153732 -7.07319736 -8.66712952 
O 34.3489037 -7.80967999 -8.27843666 
H 34.9483833 -8.50669384 -8.58457184 
H 33.5814629 -7.85911989 -8.84419441 
O 36.4215050 -9.60860825 -9.03554630 
H 36.5197945 -10.5545778 -9.10095978 
H 36.9914513 -9.31911278 -8.30049801 
15
substructure 5-mer 149 from 7-mer
O 38.9253387 -4.87717009 -7.48773813 
H 38.8928070 -4.01487398 -7.08303928 
H 38.0014114 -5.15242815 -7.61241817 
O 37.9590874 -8.41941738 -7.11880970 
H 38.8124313 -8.15936470 -7.48848581 
H 37.4227371 -7.61727762 -7.16887760 
O 40.0699081 -7.12817144 -8.55893326 
H 39.7841301 -6.28001356 -8.17602348 
H 41.0153732 -7.07319736 -8.66712952 
O 34.3489037 -7.80967999 -8.27843666 
H 34.9483833 -8.50669384 -8.58457184 
H 33.5814629 -7.85911989 -8.84419441 
O 36.5197983 -6.06568956 -8.06852818 
H 36.8885651 -6.35643005 -8.91794872 
H 35.6490555 -6.47849894 -8.01590157 
15
substructure 5-mer 150 from 7-mer
O 38.9253387 -4.87717009 -7.48773813 
H 38.8928070 -4.01487398 -7.08303928 
H 38.0014114 -5.15242815 -7.61241817 
O 37.9590874 -8.41941738 -7.11880970 
H 38.8124313 -8.15936470 -7.48848581 
H 37.4227371 -7.61727762 -7.16887760 
O 40.0699081 -7.12817144 -8.55893326 
H 39.7841301 -6.28001356 -8.17602348 
H 41.0153732 -7.07319736 -8.66712952 
O 34.3489037 -7.80967999 -8.27843666 
H 34.9483833 -8.50669384 -8.58457184 
H 33.5814629 -7.85911989 -8.84419441 
O 37.7253838 -7.29297686 -10.2747250 
H 38.5994644 -7.31026840 -9.86376858 
H 37.3208084 -8.14514160 -10.0712299 
15
substructure 5-mer 151 from 7-mer
O 38.9253387 -4.87717009 -7.48773813 
H 38.8928070 -4.01487398 -7.08303928 
H 38.0014114 -5.15242815 -7.61241817 
O 37.9590874 -8.41941738 -7.11880970 
H 38.8124313 -8.15936470 -7.48848581 
H 37.4227371 -7.61727762 -7.16887760 
O 40.0699081 -7.12817144 -8.55893326 
H 39.7841301 -6.28001356 -8.17602348 
H 41.0153732 -7.07319736 -8.66712952 
O 36.4215050 -9.60860825 -9.03554630 
H 36.5197945 -10.5545778 -9.10095978 
H 36.9914513 -9.31911278 -8.30049801 
O 36.5197983 -6.06568956 -8.06852818 
H 36.8885651 -6.35643005 -8.91794872 
H 35.6490555 -6.47849894 -8.01590157 
15
substructure 5-mer 152 from 7-mer
O 38.9253387 -4.87717009 -7.48773813 
H 38.8928070 -4.01487398 -7.08303928 
H 38.0014114 -5.15242815 -7.61241817 
O 37.9590874 -8.41941738 -7.11880970 
H 38.8124313 -8.15936470 -7.48848581 
H 37.4227371 -7.61727762 -7.16887760 
O 40.0699081 -7.12817144 -8.55893326 
H 39.7841301 -6.28001356 -8.17602348 
H 41.0153732 -7.07319736 -8.66712952 
O 36.4215050 -9.60860825 -9.03554630 
H 36.5197945 -10.5545778 -9.10095978 
H 36.9914513 -9.31911278 -8.30049801 
O 37.7253838 -7.29297686 -10.2747250 
H 38.5994644 -7.31026840 -9.86376858 
H 37.3208084 -8.14514160 -10.0712299 
15
substructure 5-mer 153 from 7-mer
O 38.9253387 -4.87717009 -7.48773813 
H 38.8928070 -4.01487398 -7.08303928 
H 38.0014114 -5.15242815 -7.61241817 
O 37.9590874 -8.41941738 -7.11880970 
H 38.8124313 -8.15936470 -7.48848581 
H 37.4227371 -7.61727762 -7.16887760 
O 40.0699081 -7.12817144 -8.55893326 
H 39.7841301 -6.28001356 -8.17602348 
H 41.0153732 -7.07319736 -8.66712952 
O 36.5197983 -6.06568956 -8.06852818 
H 36.8885651 -6.35643005 -8.91794872 
H 35.6490555 -6.47849894 -8.01590157 
O 37.7253838 -7.29297686 -10.2747250 
H 38.5994644 -7.31026840 -9.86376858 
H 37.3208084 -8.14514160 -10.0712299 
15
substructure 5-mer 154 from 7-mer
O 38.9253387 -4.87717009 -7.48773813 
H 38.8928070 -4.01487398 -7.08303928 
H 38.0014114 -5.15242815 -7.61241817 
O 37.9590874 -8.41941738 -7.11880970 
H 38.8124313 -8.15936470 -7.48848581 
H 37.4227371 -7.61727762 -7.16887760 
O 34.3489037 -7.80967999 -8.27843666 
H 34.9483833 -8.50669384 -8.58457184 
H 33.5814629 -7.85911989 -8.84419441 
O 36.4215050 -9.60860825 -9.03554630 
H 36.5197945 -10.5545778 -9.10095978 
H 36.9914513 -9.31911278 -8.30049801 
O 36.5197983 -6.06568956 -8.06852818 
H 36.8885651 -6.35643005 -8.91794872 
H 35.6490555 -6.47849894 -8.01590157 
15
substructure 5-mer 155 from 7-mer
O 38.9253387 -4.87717009 -7.48773813 
H 38.8928070 -4.01487398 -7.08303928 
H 38.0014114 -5.15242815 -7.61241817 
O 37.9590874 -8.41941738 -7.11880970 
H 38.8124313 -8.15936470 -7.48848581 
H 37.4227371 -7.61727762 -7.16887760 
O 34.3489037 -7.80967999 -8.27843666 
H 34.9483833 -8.50669384 -8.58457184 
H 33.5814629 -7.85911989 -8.84419441 
O 36.4215050 -9.60860825 -9.03554630 
H 36.5197945 -10.5545778 -9.10095978 
H 36.9914513 -9.31911278 -8.30049801 
O 37.7253838 -7.29297686 -10.2747250 
H 38.5994644 -7.31026840 -9.86376858 
H 37.3208084 -8.14514160 -10.0712299 
15
substructure 5-mer 156 from 7-mer
O 38.9253387 -4.87717009 -7.48773813 
H 38.8928070 -4.01487398 -7.08303928 
H 38.0014114 -5.15242815 -7.61241817 
O 37.9590874 -8.41941738 -7.11880970 
H 38.8124313 -8.15936470 -7.48848581 
H 37.4227371 -7.61727762 -7.16887760 
O 34.3489037 -7.80967999 -8.27843666 
H 34.9483833 -8.50669384 -8.58457184 
H 33.5814629 -7.85911989 -8.84419441 
O 36.5197983 -6.06568956 -8.06852818 
H 36.8885651 -6.35643005 -8.91794872 
H 35.6490555 -6.47849894 -8.01590157 
O 37.7253838 -7.29297686 -10.2747250 
H 38.5994644 -7.31026840 -9.86376858 
H 37.3208084 -8.14514160 -10.0712299 
15
substructure 5-mer 157 from 7-mer
O 38.9253387 -4.87717009 -7.48773813 
H 38.8928070 -4.01487398 -7.08303928 
H 38.0014114 -5.15242815 -7.61241817 
O 37.9590874 -8.41941738 -7.11880970 
H 38.8124313 -8.15936470 -7.48848581 
H 37.4227371 -7.61727762 -7.16887760 
O 36.4215050 -9.60860825 -9.03554630 
H 36.5197945 -10.5545778 -9.10095978 
H 36.9914513 -9.31911278 -8.30049801 
O 36.5197983 -6.06568956 -8.06852818 
H 36.8885651 -6.35643005 -8.91794872 
H 35.6490555 -6.47849894 -8.01590157 
O 37.7253838 -7.29297686 -10.2747250 
H 38.5994644 -7.31026840 -9.86376858 
H 37.3208084 -8.14514160 -10.0712299 
15
substructure 5-mer 158 from 7-mer
O 38.9253387 -4.87717009 -7.48773813 
H 38.8928070 -4.01487398 -7.08303928 
H 38.0014114 -5.15242815 -7.61241817 
O 40.0699081 -7.12817144 -8.55893326 
H 39.7841301 -6.28001356 -8.17602348 
H 41.0153732 -7.07319736 -8.66712952 
O 34.3489037 -7.80967999 -8.27843666 
H 34.9483833 -8.50669384 -8.58457184 
H 33.5814629 -7.85911989 -8.84419441 
O 36.4215050 -9.60860825 -9.03554630 
H 36.5197945 -10.5545778 -9.10095978 
H 36.9914513 -9.31911278 -8.30049801 
O 36.5197983 -6.06568956 -8.06852818 
H 36.8885651 -6.35643005 -8.91794872 
H 35.6490555 -6.47849894 -8.01590157 
15
substructure 5-mer 159 from 7-mer
O 38.9253387 -4.87717009 -7.48773813 
H 38.8928070 -4.01487398 -7.08303928 
H 38.0014114 -5.15242815 -7.61241817 
O 40.0699081 -7.12817144 -8.55893326 
H 39.7841301 -6.28001356 -8.17602348 
H 41.0153732 -7.07319736 -8.66712952 
O 34.3489037 -7.80967999 -8.27843666 
H 34.9483833 -8.50669384 -8.58457184 
H 33.5814629 -7.85911989 -8.84419441 
O 36.4215050 -9.60860825 -9.03554630 
H 36.5197945 -10.5545778 -9.10095978 
H 36.9914513 -9.31911278 -8.30049801 
O 37.7253838 -7.29297686 -10.2747250 
H 38.5994644 -7.31026840 -9.86376858 
H 37.3208084 -8.14514160 -10.0712299 
15
substructure 5-mer 160 from 7-mer
O 38.9253387 -4.87717009 -7.48773813 
H 38.8928070 -4.01487398 -7.08303928 
H 38.0014114 -5.15242815 -7.61241817 
O 40.0699081 -7.12817144 -8.55893326 
H 39.7841301 -6.28001356 -8.17602348 
H 41.0153732 -7.07319736 -8.66712952 
O 34.3489037 -7.80967999 -8.27843666 
H 34.9483833 -8.50669384 -8.58457184 
H 33.5814629 -7.85911989 -8.84419441 
O 36.5197983 -6.06568956 -8.06852818 
H 36.8885651 -6.35643005 -8.91794872 
H 35.6490555 -6.47849894 -8.01590157 
O 37.7253838 -7.29297686 -10.2747250 
H 38.5994644 -7.31026840 -9.86376858 
H 37.3208084 -8.14514160 -10.0712299 
15
substructure 5-mer 161 from 7-mer
O 38.9253387 -4.87717009 -7.48773813 
H 38.8928070 -4.01487398 -7.08303928 
H 38.0014114 -5.15242815 -7.61241817 
O 40.0699081 -7.12817144 -8.55893326 
H 39.7841301 -6.28001356 -8.17602348 
H 41.0153732 -7.07319736 -8.66712952 
O 36.4215050 -9.60860825 -9.03554630 
H 36.5197945 -10.5545778 -9.10095978 
H 36.9914513 -9.31911278 -8.30049801 
O 36.5197983 -6.06568956 -8.06852818 
H 36.8885651 -6.35643005 -8.91794872 
H 35.6490555 -6.47849894 -8.01590157 
O 37.7253838 -7.29297686 -10.2747250 
H 38.5994644 -7.31026840 -9.86376858 
H 37.3208084 -8.14514160 -10.0712299 
15
substructure 5-mer 162 from 7-mer
O 38.9253387 -4.87717009 -7.48773813 
H 38.8928070 -4.01487398 -7.08303928 
H 38.0014114 -5.15242815 -7.61241817 
O 34.3489037 -7.80967999 -8.27843666 
H 34.9483833 -8.50669384 -8.58457184 
H 33.5814629 -7.85911989 -8.84419441 
O 36.4215050 -9.60860825 -9.03554630 
H 36.5197945 -10.5545778 -9.10095978 
H 36.9914513 -9.31911278 -8.30049801 
O 36.5197983 -6.06568956 -8.06852818 
H 36.8885651 -6.35643005 -8.91794872 
H 35.6490555 -6.47849894 -8.01590157 
O 37.7253838 -7.29297686 -10.2747250 
H 38.5994644 -7.31026840 -9.86376858 
H 37.3208084 -8.14514160 -10.0712299 
15
substructure 5-mer 163 from 7-mer
O 37.9590874 -8.41941738 -7.11880970 
H 38.8124313 -8.15936470 -7.48848581 
H 37.4227371 -7.61727762 -7.16887760 
O 40.0699081 -7.12817144 -8.55893326 
H 39.7841301 -6.28001356 -8.17602348 
H 41.0153732 -7.07319736 -8.66712952 
O 34.3489037 -7.80967999 -8.27843666 
H 34.9483833 -8.50669384 -8.58457184 
H 33.5814629 -7.85911989 -8.84419441 
O 36.4215050 -9.60860825 -9.03554630 
H 36.5197945 -10.5545778 -9.10095978 
H 36.9914513 -9.31911278 -8.30049801 
O 36.5197983 -6.06568956 -8.06852818 
H 36.8885651 -6.35643005 -8.91794872 
H 35.6490555 -6.47849894 -8.01590157 
15
substructure 5-mer 164 from 7-mer
O 37.9590874 -8.41941738 -7.11880970 
H 38.8124313 -8.15936470 -7.48848581 
H 37.4227371 -7.61727762 -7.16887760 
O 40.0699081 -7.12817144 -8.55893326 
H 39.7841301 -6.28001356 -8.17602348 
H 41.0153732 -7.07319736 -8.66712952 
O 34.3489037 -7.80967999 -8.27843666 
H 34.9483833 -8.50669384 -8.58457184 
H 33.5814629 -7.85911989 -8.84419441 
O 36.4215050 -9.60860825 -9.03554630 
H 36.5197945 -10.5545778 -9.10095978 
H 36.9914513 -9.31911278 -8.30049801 
O 37.7253838 -7.29297686 -10.2747250 
H 38.5994644 -7.31026840 -9.86376858 
H 37.3208084 -8.14514160 -10.0712299 
15
substructure 5-mer 165 from 7-mer
O 37.9590874 -8.41941738 -7.11880970 
H 38.8124313 -8.15936470 -7.48848581 
H 37.4227371 -7.61727762 -7.16887760 
O 40.0699081 -7.12817144 -8.55893326 
H 39.7841301 -6.28001356 -8.17602348 
H 41.0153732 -7.07319736 -8.66712952 
O 34.3489037 -7.80967999 -8.27843666 
H 34.9483833 -8.50669384 -8.58457184 
H 33.5814629 -7.85911989 -8.84419441 
O 36.5197983 -6.06568956 -8.06852818 
H 36.8885651 -6.35643005 -8.91794872 
H 35.6490555 -6.47849894 -8.01590157 
O 37.7253838 -7.29297686 -10.2747250 
H 38.5994644 -7.31026840 -9.86376858 
H 37.3208084 -8.14514160 -10.0712299 
15
substructure 5-mer 166 from 7-mer
O 37.9590874 -8.41941738 -7.11880970 
H 38.8124313 -8.15936470 -7.48848581 
H 37.4227371 -7.61727762 -7.16887760 
O 40.0699081 -7.12817144 -8.55893326 
H 39.7841301 -6.28001356 -8.17602348 
H 41.0153732 -7.07319736 -8.66712952 
O 36.4215050 -9.60860825 -9.03554630 
H 36.5197945 -10.5545778 -9.10095978 
H 36.9914513 -9.31911278 -8.30049801 
O 36.5197983 -6.06568956 -8.06852818 
H 36.8885651 -6.35643005 -8.91794872 
H 35.6490555 -6.47849894 -8.01590157 
O 37.7253838 -7.29297686 -10.2747250 
H 38.5994644 -7.31026840 -9.86376858 
H 37.3208084 -8.14514160 -10.0712299 
15
substructure 5-mer 167 from 7-mer
O 37.9590874 -8.41941738 -7.11880970 
H 38.8124313 -8.15936470 -7.48848581 
H 37.4227371 -7.61727762 -7.16887760 
O 34.3489037 -7.80967999 -8.27843666 
H 34.9483833 -8.50669384 -8.58457184 
H 33.5814629 -7.85911989 -8.84419441 
O 36.4215050 -9.60860825 -9.03554630 
H 36.5197945 -10.5545778 -9.10095978 
H 36.9914513 -9.31911278 -8.30049801 
O 36.5197983 -6.06568956 -8.06852818 
H 36.8885651 -6.35643005 -8.91794872 
H 35.6490555 -6.47849894 -8.01590157 
O 37.7253838 -7.29297686 -10.2747250 
H 38.5994644 -7.31026840 -9.86376858 
H 37.3208084 -8.14514160 -10.0712299 
15
substructure 5-mer 168 from 7-mer
O 40.0699081 -7.12817144 -8.55893326 
H 39.7841301 -6.28001356 -8.17602348 
H 41.0153732 -7.07319736 -8.66712952 
O 34.3489037 -7.80967999 -8.27843666 
H 34.9483833 -8.50669384 -8.58457184 
H 33.5814629 -7.85911989 -8.84419441 
O 36.4215050 -9.60860825 -9.03554630 
H 36.5197945 -10.5545778 -9.10095978 
H 36.9914513 -9.31911278 -8.30049801 
O 36.5197983 -6.06568956 -8.06852818 
H 36.8885651 -6.35643005 -8.91794872 
H 35.6490555 -6.47849894 -8.01590157 
O 37.7253838 -7.29297686 -10.2747250 
H 38.5994644 -7.31026840 -9.86376858 
H 37.3208084 -8.14514160 -10.0712299 
15
substructure 5-mer 169 from 7-mer
O 33.0246124 4.67217112 -3.50582457 
H 33.0566940 3.91707039 -2.90560102 
H 32.0812187 4.85604477 -3.62663388 
O 33.6224442 3.28862286 -5.78144550 
H 33.5209808 3.88362765 -5.01737452 
H 33.9442978 3.82096386 -6.50348616 
O 30.2634029 4.58625984 -4.01829767 
H 30.3962746 3.68662810 -4.35661316 
H 29.4493408 4.89526463 -4.40781832 
O 31.1862640 2.10004973 -4.88870764 
H 31.2561188 1.15039873 -5.06234694 
H 31.9451542 2.50460744 -5.33317089 
O 34.2926216 0.820731819 -4.44586134 
H 34.2696114 1.60865319 -5.00418997 
H 33.9571724 1.12021863 -3.59130287 
15
substructure 5-mer 170 from 7-mer
O 33.0246124 4.67217112 -3.50582457 
H 33.0566940 3.91707039 -2.90560102 
H 32.0812187 4.85604477 -3.62663388 
O 33.6224442 3.28862286 -5.78144550 
H 33.5209808 3.88362765 -5.01737452 
H 33.9442978 3.82096386 -6.50348616 
O 30.2634029 4.58625984 -4.01829767 
H 30.3962746 3.68662810 -4.35661316 
H 29.4493408 4.89526463 -4.40781832 
O 31.1862640 2.10004973 -4.88870764 
H 31.2561188 1.15039873 -5.06234694 
H 31.9451542 2.50460744 -5.33317089 
O 32.6387138 2.02966213 -2.41843534 
H 32.0401917 2.01609039 -3.18205762 
H 32.1347160 1.70264828 -1.67691338 
15
substructure 5-mer 171 from 7-mer
O 33.0246124 4.67217112 -3.50582457 
H 33.0566940 3.91707039 -2.90560102 
H 32.0812187 4.85604477 -3.62663388 
O 33.6224442 3.28862286 -5.78144550 
H 33.5209808 3.88362765 -5.01737452 
H 33.9442978 3.82096386 -6.50348616 
O 30.2634029 4.58625984 -4.01829767 
H 30.3962746 3.68662810 -4.35661316 
H 29.4493408 4.89526463 -4.40781832 
O 31.1862640 2.10004973 -4.88870764 
H 31.2561188 1.15039873 -5.06234694 
H 31.9451542 2.50460744 -5.33317089 
O 31.9834137 -0.507116854 -5.24130821 
H 32.8683434 -0.185539871 -5.00018787 
H 32.1151276 -1.34674549 -5.67269516 
15
substructure 5-mer 172 from 7-mer
O 33.0246124 4.67217112 -3.50582457 
H 33.0566940 3.91707039 -2.90560102 
H 32.0812187 4.85604477 -3.62663388 
O 33.6224442 3.28862286 -5.78144550 
H 33.5209808 3.88362765 -5.01737452 
H 33.9442978 3.82096386 -6.50348616 
O 30.2634029 4.58625984 -4.01829767 
H 30.3962746 3.68662810 -4.35661316 
H 29.4493408 4.89526463 -4.40781832 
O 34.2926216 0.820731819 -4.44586134 
H 34.2696114 1.60865319 -5.00418997 
H 33.9571724 1.12021863 -3.59130287 
O 32.6387138 2.02966213 -2.41843534 
H 32.0401917 2.01609039 -3.18205762 
H 32.1347160 1.70264828 -1.67691338 
15
substructure 5-mer 173 from 7-mer
O 33.0246124 4.67217112 -3.50582457 
H 33.0566940 3.91707039 -2.90560102 
H 32.0812187 4.85604477 -3.62663388 
O 33.6224442 3.28862286 -5.78144550 
H 33.5209808 3.88362765 -5.01737452 
H 33.9442978 3.82096386 -6.50348616 
O 30.2634029 4.58625984 -4.01829767 
H 30.3962746 3.68662810 -4.35661316 
H 29.4493408 4.89526463 -4.40781832 
O 34.2926216 0.820731819 -4.44586134 
H 34.2696114 1.60865319 -5.00418997 
H 33.9571724 1.12021863 -3.59130287 
O 31.9834137 -0.507116854 -5.24130821 
H 32.8683434 -0.185539871 -5.00018787 
H 32.1151276 -1.34674549 -5.67269516 
15
substructure 5-mer 174 from 7-mer
O 33.0246124 4.67217112 -3.50582457 
H 33.0566940 3.91707039 -2.90560102 
H 32.0812187 4.85604477 -3.62663388 
O 33.6224442 3.28862286 -5.78144550 
H 33.5209808 3.88362765 -5.01737452 
H 33.9442978 3.82096386 -6.50348616 
O 30.2634029 4.58625984 -4.01829767 
H 30.3962746 3.68662810 -4.35661316 
H 29.4493408 4.89526463 -4.40781832 
O 32.6387138 2.02966213 -2.41843534 
H 32.0401917 2.01609039 -3.18205762 
H 32.1347160 1.70264828 -1.67691338 
O 31.9834137 -0.507116854 -5.24130821 
H 32.8683434 -0.185539871 -5.00018787 
H 32.1151276 -1.34674549 -5.67269516 
15
substructure 5-mer 175 from 7-mer
O 33.0246124 4.67217112 -3.50582457 
H 33.0566940 3.91707039 -2.90560102 
H 32.0812187 4.85604477 -3.62663388 
O 33.6224442 3.28862286 -5.78144550 
H 33.5209808 3.88362765 -5.01737452 
H 33.9442978 3.82096386 -6.50348616 
O 31.1862640 2.10004973 -4.88870764 
H 31.2561188 1.15039873 -5.06234694 
H 31.9451542 2.50460744 -5.33317089 
O 34.2926216 0.820731819 -4.44586134 
H 34.2696114 1.60865319 -5.00418997 
H 33.9571724 1.12021863 -3.59130287 
O 32.6387138 2.02966213 -2.41843534 
H 32.0401917 2.01609039 -3.18205762 
H 32.1347160 1.70264828 -1.67691338 
15
substructure 5-mer 176 from 7-mer
O 33.0246124 4.67217112 -3.50582457 
H 33.0566940 3.91707039 -2.90560102 
H 32.0812187 4.85604477 -3.62663388 
O 33.6224442 3.28862286 -5.78144550 
H 33.5209808 3.88362765 -5.01737452 
H 33.9442978 3.82096386 -6.50348616 
O 31.1862640 2.10004973 -4.88870764 
H 31.2561188 1.15039873 -5.06234694 
H 31.9451542 2.50460744 -5.33317089 
O 34.2926216 0.820731819 -4.44586134 
H 34.2696114 1.60865319 -5.00418997 
H 33.9571724 1.12021863 -3.59130287 
O 31.9834137 -0.507116854 -5.24130821 
H 32.8683434 -0.185539871 -5.00018787 
H 32.1151276 -1.34674549 -5.67269516 
15
substructure 5-mer 177 from 7-mer
O 33.0246124 4.67217112 -3.50582457 
H 33.0566940 3.91707039 -2.90560102 
H 32.0812187 4.85604477 -3.62663388 
O 33.6224442 3.28862286 -5.78144550 
H 33.5209808 3.88362765 -5.01737452 
H 33.9442978 3.82096386 -6.50348616 
O 31.1862640 2.10004973 -4.88870764 
H 31.2561188 1.15039873 -5.06234694 
H 31.9451542 2.50460744 -5.33317089 
O 32.6387138 2.02966213 -2.41843534 
H 32.0401917 2.01609039 -3.18205762 
H 32.1347160 1.70264828 -1.67691338 
O 31.9834137 -0.507116854 -5.24130821 
H 32.8683434 -0.185539871 -5.00018787 
H 32.1151276 -1.34674549 -5.67269516 
15
substructure 5-mer 178 from 7-mer
O 33.0246124 4.67217112 -3.50582457 
H 33.0566940 3.91707039 -2.90560102 
H 32.0812187 4.85604477 -3.62663388 
O 33.6224442 3.28862286 -5.78144550 
H 33.5209808 3.88362765 -5.01737452 
H 33.9442978 3.82096386 -6.50348616 
O 34.2926216 0.820731819 -4.44586134 
H 34.2696114 1.60865319 -5.00418997 
H 33.9571724 1.12021863 -3.59130287 
O 32.6387138 2.02966213 -2.41843534 
H 32.0401917 2.01609039 -3.18205762 
H 32.1347160 1.70264828 -1.67691338 
O 31.9834137 -0.507116854 -5.24130821 
H 32.8683434 -0.185539871 -5.00018787 
H 32.1151276 -1.34674549 -5.67269516 
15
substructure 5-mer 179 from 7-mer
O 33.0246124 4.67217112 -3.50582457 
H 33.0566940 3.91707039 -2.90560102 
H 32.0812187 4.85604477 -3.62663388 
O 30.2634029 4.58625984 -4.01829767 
H 30.3962746 3.68662810 -4.35661316 
H 29.4493408 4.89526463 -4.40781832 
O 31.1862640 2.10004973 -4.88870764 
H 31.2561188 1.15039873 -5.06234694 
H 31.9451542 2.50460744 -5.33317089 
O 34.2926216 0.820731819 -4.44586134 
H 34.2696114 1.60865319 -5.00418997 
H 33.9571724 1.12021863 -3.59130287 
O 32.6387138 2.02966213 -2.41843534 
H 32.0401917 2.01609039 -3.18205762 
H 32.1347160 1.70264828 -1.67691338 
15
substructure 5-mer 180 from 7-mer
O 33.0246124 4.67217112 -3.50582457 
H 33.0566940 3.91707039 -2.90560102 
H 32.0812187 4.85604477 -3.62663388 
O 30.2634029 4.58625984 -4.01829767 
H 30.3962746 3.68662810 -4.35661316 
H 29.4493408 4.89526463 -4.40781832 
O 31.1862640 2.10004973 -4.88870764 
H 31.2561188 1.15039873 -5.06234694 
H 31.9451542 2.50460744 -5.33317089 
O 34.2926216 0.820731819 -4.44586134 
H 34.2696114 1.60865319 -5.00418997 
H 33.9571724 1.12021863 -3.59130287 
O 31.9834137 -0.507116854 -5.24130821 
H 32.8683434 -0.185539871 -5.00018787 
H 32.1151276 -1.34674549 -5.67269516 
15
substructure 5-mer 181 from 7-mer
O 33.0246124 4.67217112 -3.50582457 
H 33.0566940 3.91707039 -2.90560102 
H 32.0812187 4.85604477 -3.62663388 
O 30.2634029 4.58625984 -4.01829767 
H 30.3962746 3.68662810 -4.35661316 
H 29.4493408 4.89526463 -4.40781832 
O 31.1862640 2.10004973 -4.88870764 
H 31.2561188 1.15039873 -5.06234694 
H 31.9451542 2.50460744 -5.33317089 
O 32.6387138 2.02966213 -2.41843534 
H 32.0401917 2.01609039 -3.18205762 
H 32.1347160 1.70264828 -1.67691338 
O 31.9834137 -0.507116854 -5.24130821 
H 32.8683434 -0.185539871 -5.00018787 
H 32.1151276 -1.34674549 -5.67269516 
15
substructure 5-mer 182 from 7-mer
O 33.0246124 4.67217112 -3.50582457 
H 33.0566940 3.91707039 -2.90560102 
H 32.0812187 4.85604477 -3.62663388 
O 30.2634029 4.58625984 -4.01829767 
H 30.3962746 3.68662810 -4.35661316 
H 29.4493408 4.89526463 -4.40781832 
O 34.2926216 0.820731819 -4.44586134 
H 34.2696114 1.60865319 -5.00418997 
H 33.9571724 1.12021863 -3.59130287 
O 32.6387138 2.02966213 -2.41843534 
H 32.0401917 2.01609039 -3.18205762 
H 32.1347160 1.70264828 -1.67691338 
O 31.9834137 -0.507116854 -5.24130821 
H 32.8683434 -0.185539871 -5.00018787 
H 32.1151276 -1.34674549 -5.67269516 
15
substructure 5-mer 183 from 7-mer
O 33.0246124 4.67217112 -3.50582457 
H 33.0566940 3.91707039 -2.90560102 
H 32.0812187 4.85604477 -3.62663388 
O 31.1862640 2.10004973 -4.88870764 
H 31.2561188 1.15039873 -5.06234694 
H 31.9451542 2.50460744 -5.33317089 
O 34.2926216 0.820731819 -4.44586134 
H 34.2696114 1.60865319 -5.00418997 
H 33.9571724 1.12021863 -3.59130287 
O 32.6387138 2.02966213 -2.41843534 
H 32.0401917 2.01609039 -3.18205762 
H 32.1347160 1.70264828 -1.67691338 
O 31.9834137 -0.507116854 -5.24130821 
H 32.8683434 -0.185539871 -5.00018787 
H 32.1151276 -1.34674549 -5.67269516 
15
substructure 5-mer 184 from 7-mer
O 33.6224442 3.28862286 -5.78144550 
H 33.5209808 3.88362765 -5.01737452 
H 33.9442978 3.82096386 -6.50348616 
O 30.2634029 4.58625984 -4.01829767 
H 30.3962746 3.68662810 -4.35661316 
H 29.4493408 4.89526463 -4.40781832 
O 31.1862640 2.10004973 -4.88870764 
H 31.2561188 1.15039873 -5.06234694 
H 31.9451542 2.50460744 -5.33317089 
O 34.2926216 0.820731819 -4.44586134 
H 34.2696114 1.60865319 -5.00418997 
H 33.9571724 1.12021863 -3.59130287 
O 32.6387138 2.02966213 -2.41843534 
H 32.0401917 2.01609039 -3.18205762 
H 32.1347160 1.70264828 -1.67691338 
15
substructure 5-mer 185 from 7-mer
O 33.6224442 3.28862286 -5.78144550 
H 33.5209808 3.88362765 -5.01737452 
H 33.9442978 3.82096386 -6.50348616 
O 30.2634029 4.58625984 -4.01829767 
H 30.3962746 3.68662810 -4.35661316 
H 29.4493408 4.89526463 -4.40781832 
O 31.1862640 2.10004973 -4.88870764 
H 31.2561188 1.15039873 -5.06234694 
H 31.9451542 2.50460744 -5.33317089 
O 34.2926216 0.820731819 -4.44586134 
H 34.2696114 1.60865319 -5.00418997 
H 33.9571724 1.12021863 -3.59130287 
O 31.9834137 -0.507116854 -5.24130821 
H 32.8683434 -0.185539871 -5.00018787 
H 32.1151276 -1.34674549 -5.67269516 
15
substructure 5-mer 186 from 7-mer
O 33.6224442 3.28862286 -5.78144550 
H 33.5209808 3.88362765 -5.01737452 
H 33.9442978 3.82096386 -6.50348616 
O 30.2634029 4.58625984 -4.01829767 
H 30.3962746 3.68662810 -4.35661316 
H 29.4493408 4.89526463 -4.40781832 
O 31.1862640 2.10004973 -4.88870764 
H 31.2561188 1.15039873 -5.06234694 
H 31.9451542 2.50460744 -5.33317089 
O 32.6387138 2.02966213 -2.41843534 
H 32.0401917 2.01609039 -3.18205762 
H 32.1347160 1.70264828 -1.67691338 
O 31.9834137 -0.507116854 -5.24130821 
H 32.8683434 -0.185539871 -5.00018787 
H 32.1151276 -1.34674549 -5.67269516 
15
substructure 5-mer 187 from 7-mer
O 33.6224442 3.28862286 -5.78144550 
H 33.5209808 3.88362765 -5.01737452 
H 33.9442978 3.82096386 -6.50348616 
O 30.2634029 4.58625984 -4.01829767 
H 30.3962746 3.68662810 -4.35661316 
H 29.4493408 4.89526463 -4.40781832 
O 34.2926216 0.820731819 -4.44586134 
H 34.2696114 1.60865319 -5.00418997 
H 33.9571724 1.12021863 -3.59130287 
O 32.6387138 2.02966213 -2.41843534 
H 32.0401917 2.01609039 -3.18205762 
H 32.1347160 1.70264828 -1.67691338 
O 31.9834137 -0.507116854 -5.24130821 
H 32.8683434 -0.185539871 -5.00018787 
H 32.1151276 -1.34674549 -5.67269516 
15
substructure 5-mer 188 from 7-mer
O 33.6224442 3.28862286 -5.78144550 
H 33.5209808 3.88362765 -5.01737452 
H 33.9442978 3.82096386 -6.50348616 
O 31.1862640 2.10004973 -4.88870764 
H 31.2561188 1.15039873 -5.06234694 
H 31.9451542 2.50460744 -5.33317089 
O 34.2926216 0.820731819 -4.44586134 
H 34.2696114 1.60865319 -5.00418997 
H 33.9571724 1.12021863 -3.59130287 
O 32.6387138 2.02966213 -2.41843534 
H 32.0401917 2.01609039 -3.18205762 
H 32.1347160 1.70264828 -1.67691338 
O 31.9834137 -0.507116854 -5.24130821 
H 32.8683434 -0.185539871 -5.00018787 
H 32.1151276 -1.34674549 -5.67269516 
15
substructure 5-mer 189 from 7-mer
O 30.2634029 4.58625984 -4.01829767 
H 30.3962746 3.68662810 -4.35661316 
H 29.4493408 4.89526463 -4.40781832 
O 31.1862640 2.10004973 -4.88870764 
H 31.2561188 1.15039873 -5.06234694 
H 31.9451542 2.50460744 -5.33317089 
O 34.2926216 0.820731819 -4.44586134 
H 34.2696114 1.60865319 -5.00418997 
H 33.9571724 1.12021863 -3.59130287 
O 32.6387138 2.02966213 -2.41843534 
H 32.0401917 2.01609039 -3.18205762 
H 32.1347160 1.70264828 -1.67691338 
O 31.9834137 -0.507116854 -5.24130821 
H 32.8683434 -0.185539871 -5.00018787 
H 32.1151276 -1.34674549 -5.67269516 
15
substructure 5-mer 190 from 7-mer
O 32.0711555 0.381665349 -1.44814897 
H 31.2583294 0.629376650 -1.91387606 
H 31.8099899 0.188121334 -0.550854623 
O 33.5499229 2.09409142 -3.07476282 
H 33.0564346 1.86612988 -3.87881517 
H 33.2643127 1.45625341 -2.40882516 
O 31.7724495 1.73055816 -5.20258570 
H 31.0368614 1.53843844 -4.60851002 
H 31.7169838 2.67530608 -5.39613819 
O 34.5234222 4.30420303 -4.38049650 
H 35.4639778 4.30160856 -4.53649902 
H 34.3386002 3.51740384 -3.84024596 
O 31.9602890 4.63503265 -5.30728626 
H 31.8654232 5.33371401 -5.94874525 
H 32.9006042 4.61355162 -5.05651712 
15
substructure 5-mer 191 from 7-mer
O 32.0711555 0.381665349 -1.44814897 
H 31.2583294 0.629376650 -1.91387606 
H 31.8099899 0.188121334 -0.550854623 
O 33.5499229 2.09409142 -3.07476282 
H 33.0564346 1.86612988 -3.87881517 
H 33.2643127 1.45625341 -2.40882516 
O 31.7724495 1.73055816 -5.20258570 
H 31.0368614 1.53843844 -4.60851002 
H 31.7169838 2.67530608 -5.39613819 
O 34.5234222 4.30420303 -4.38049650 
H 35.4639778 4.30160856 -4.53649902 
H 34.3386002 3.51740384 -3.84024596 
O 31.2636299 3.85324526 -2.64584422 
H 32.0970535 3.37154317 -2.56037450 
H 31.3360214 4.30540085 -3.49604487 
15
substructure 5-mer 192 from 7-mer
O 32.0711555 0.381665349 -1.44814897 
H 31.2583294 0.629376650 -1.91387606 
H 31.8099899 0.188121334 -0.550854623 
O 33.5499229 2.09409142 -3.07476282 
H 33.0564346 1.86612988 -3.87881517 
H 33.2643127 1.45625341 -2.40882516 
O 31.7724495 1.73055816 -5.20258570 
H 31.0368614 1.53843844 -4.60851002 
H 31.7169838 2.67530608 -5.39613819 
O 34.5234222 4.30420303 -4.38049650 
H 35.4639778 4.30160856 -4.53649902 
H 34.3386002 3.51740384 -3.84024596 
O 29.9177437 1.49519408 -2.93403339 
H 30.2693844 2.39051867 -2.78004766 
H 28.9674072 1.56342161 -2.90359640 
15
substructure 5-mer 193 from 7-mer
O 32.0711555 0.381665349 -1.44814897 
H 31.2583294 0.629376650 -1.91387606 
H 31.8099899 0.188121334 -0.550854623 
O 33.5499229 2.09409142 -3.07476282 
H 33.0564346 1.86612988 -3.87881517 
H 33.2643127 1.45625341 -2.40882516 
O 31.7724495 1.73055816 -5.20258570 
H 31.0368614 1.53843844 -4.60851002 
H 31.7169838 2.67530608 -5.39613819 
O 31.9602890 4.63503265 -5.30728626 
H 31.8654232 5.33371401 -5.94874525 
H 32.9006042 4.61355162 -5.05651712 
O 31.2636299 3.85324526 -2.64584422 
H 32.0970535 3.37154317 -2.56037450 
H 31.3360214 4.30540085 -3.49604487 
15
substructure 5-mer 194 from 7-mer
O 32.0711555 0.381665349 -1.44814897 
H 31.2583294 0.629376650 -1.91387606 
H 31.8099899 0.188121334 -0.550854623 
O 33.5499229 2.09409142 -3.07476282 
H 33.0564346 1.86612988 -3.87881517 
H 33.2643127 1.45625341 -2.40882516 
O 31.7724495 1.73055816 -5.20258570 
H 31.0368614 1.53843844 -4.60851002 
H 31.7169838 2.67530608 -5.39613819 
O 31.9602890 4.63503265 -5.30728626 
H 31.8654232 5.33371401 -5.94874525 
H 32.9006042 4.61355162 -5.05651712 
O 29.9177437 1.49519408 -2.93403339 
H 30.2693844 2.39051867 -2.78004766 
H 28.9674072 1.56342161 -2.90359640 
15
substructure 5-mer 195 from 7-mer
O 32.0711555 0.381665349 -1.44814897 
H 31.2583294 0.629376650 -1.91387606 
H 31.8099899 0.188121334 -0.550854623 
O 33.5499229 2.09409142 -3.07476282 
H 33.0564346 1.86612988 -3.87881517 
H 33.2643127 1.45625341 -2.40882516 
O 31.7724495 1.73055816 -5.20258570 
H 31.0368614 1.53843844 -4.60851002 
H 31.7169838 2.67530608 -5.39613819 
O 31.2636299 3.85324526 -2.64584422 
H 32.0970535 3.37154317 -2.56037450 
H 31.3360214 4.30540085 -3.49604487 
O 29.9177437 1.49519408 -2.93403339 
H 30.2693844 2.39051867 -2.78004766 
H 28.9674072 1.56342161 -2.90359640 
15
substructure 5-mer 196 from 7-mer
O 32.0711555 0.381665349 -1.44814897 
H 31.2583294 0.629376650 -1.91387606 
H 31.8099899 0.188121334 -0.550854623 
O 33.5499229 2.09409142 -3.07476282 
H 33.0564346 1.86612988 -3.87881517 
H 33.2643127 1.45625341 -2.40882516 
O 34.5234222 4.30420303 -4.38049650 
H 35.4639778 4.30160856 -4.53649902 
H 34.3386002 3.51740384 -3.84024596 
O 31.9602890 4.63503265 -5.30728626 
H 31.8654232 5.33371401 -5.94874525 
H 32.9006042 4.61355162 -5.05651712 
O 31.2636299 3.85324526 -2.64584422 
H 32.0970535 3.37154317 -2.56037450 
H 31.3360214 4.30540085 -3.49604487 
15
substructure 5-mer 197 from 7-mer
O 32.0711555 0.381665349 -1.44814897 
H 31.2583294 0.629376650 -1.91387606 
H 31.8099899 0.188121334 -0.550854623 
O 33.5499229 2.09409142 -3.07476282 
H 33.0564346 1.86612988 -3.87881517 
H 33.2643127 1.45625341 -2.40882516 
O 34.5234222 4.30420303 -4.38049650 
H 35.4639778 4.30160856 -4.53649902 
H 34.3386002 3.51740384 -3.84024596 
O 31.9602890 4.63503265 -5.30728626 
H 31.8654232 5.33371401 -5.94874525 
H 32.9006042 4.61355162 -5.05651712 
O 29.9177437 1.49519408 -2.93403339 
H 30.2693844 2.39051867 -2.78004766 
H 28.9674072 1.56342161 -2.90359640 
15
substructure 5-mer 198 from 7-mer
O 32.0711555 0.381665349 -1.44814897 
H 31.2583294 0.629376650 -1.91387606 
H 31.8099899 0.188121334 -0.550854623 
O 33.5499229 2.09409142 -3.07476282 
H 33.0564346 1.86612988 -3.87881517 
H 33.2643127 1.45625341 -2.40882516 
O 34.5234222 4.30420303 -4.38049650 
H 35.4639778 4.30160856 -4.53649902 
H 34.3386002 3.51740384 -3.84024596 
O 31.2636299 3.85324526 -2.64584422 
H 32.0970535 3.37154317 -2.56037450 
H 31.3360214 4.30540085 -3.49604487 
O 29.9177437 1.49519408 -2.93403339 
H 30.2693844 2.39051867 -2.78004766 
H 28.9674072 1.56342161 -2.90359640 
15
substructure 5-mer 199 from 7-mer
O 32.0711555 0.381665349 -1.44814897 
H 31.2583294 0.629376650 -1.91387606 
H 31.8099899 0.188121334 -0.550854623 
O 33.5499229 2.09409142 -3.07476282 
H 33.0564346 1.86612988 -3.87881517 
H 33.2643127 1.45625341 -2.40882516 
O 31.9602890 4.63503265 -5.30728626 
H 31.8654232 5.33371401 -5.94874525 
H 32.9006042 4.61355162 -5.05651712 
O 31.2636299 3.85324526 -2.64584422 
H 32.0970535 3.37154317 -2.56037450 
H 31.3360214 4.30540085 -3.49604487 
O 29.9177437 1.49519408 -2.93403339 
H 30.2693844 2.39051867 -2.78004766 
H 28.9674072 1.56342161 -2.90359640 
15
substructure 5-mer 200 from 7-mer
O 32.0711555 0.381665349 -1.44814897 
H 31.2583294 0.629376650 -1.91387606 
H 31.8099899 0.188121334 -0.550854623 
O 31.7724495 1.73055816 -5.20258570 
H 31.0368614 1.53843844 -4.60851002 
H 31.7169838 2.67530608 -5.39613819 
O 34.5234222 4.30420303 -4.38049650 
H 35.4639778 4.30160856 -4.53649902 
H 34.3386002 3.51740384 -3.84024596 
O 31.9602890 4.63503265 -5.30728626 
H 31.8654232 5.33371401 -5.94874525 
H 32.9006042 4.61355162 -5.05651712 
O 31.2636299 3.85324526 -2.64584422 
H 32.0970535 3.37154317 -2.56037450 
H 31.3360214 4.30540085 -3.49604487 
15
substructure 5-mer 201 from 7-mer
O 32.0711555 0.381665349 -1.44814897 
H 31.2583294 0.629376650 -1.91387606 
H 31.8099899 0.188121334 -0.550854623 
O 31.7724495 1.73055816 -5.20258570 
H 31.0368614 1.53843844 -4.60851002 
H 31.7169838 2.67530608 -5.39613819 
O 34.5234222 4.30420303 -4.38049650 
H 35.4639778 4.30160856 -4.53649902 
H 34.3386002 3.51740384 -3.84024596 
O 31.9602890 4.63503265 -5.30728626 
H 31.8654232 5.33371401 -5.94874525 
H 32.9006042 4.61355162 -5.05651712 
O 29.9177437 1.49519408 -2.93403339 
H 30.2693844 2.39051867 -2.78004766 
H 28.9674072 1.56342161 -2.90359640 
15
substructure 5-mer 202 from 7-mer
O 32.0711555 0.381665349 -1.44814897 
H 31.2583294 0.629376650 -1.91387606 
H 31.8099899 0.188121334 -0.550854623 
O 31.7724495 1.73055816 -5.20258570 
H 31.0368614 1.53843844 -4.60851002 
H 31.7169838 2.67530608 -5.39613819 
O 34.5234222 4.30420303 -4.38049650 
H 35.4639778 4.30160856 -4.53649902 
H 34.3386002 3.51740384 -3.84024596 
O 31.2636299 3.85324526 -2.64584422 
H 32.0970535 3.37154317 -2.56037450 
H 31.3360214 4.30540085 -3.49604487 
O 29.9177437 1.49519408 -2.93403339 
H 30.2693844 2.39051867 -2.78004766 
H 28.9674072 1.56342161 -2.90359640 
15
substructure 5-mer 203 from 7-mer
O 32.0711555 0.381665349 -1.44814897 
H 31.2583294 0.629376650 -1.91387606 
H 31.8099899 0.188121334 -0.550854623 
O 31.7724495 1.73055816 -5.20258570 
H 31.0368614 1.53843844 -4.60851002 
H 31.7169838 2.67530608 -5.39613819 
O 31.9602890 4.63503265 -5.30728626 
H 31.8654232 5.33371401 -5.94874525 
H 32.9006042 4.61355162 -5.05651712 
O 31.2636299 3.85324526 -2.64584422 
H 32.0970535 3.37154317 -2.56037450 
H 31.3360214 4.30540085 -3.49604487 
O 29.9177437 1.49519408 -2.93403339 
H 30.2693844 2.39051867 -2.78004766 
H 28.9674072 1.56342161 -2.90359640 
15
substructure 5-mer 204 from 7-mer
O 32.0711555 0.381665349 -1.44814897 
H 31.2583294 0.629376650 -1.91387606 
H 31.8099899 0.188121334 -0.550854623 
O 34.5234222 4.30420303 -4.38049650 
H 35.4639778 4.30160856 -4.53649902 
H 34.3386002 3.51740384 -3.84024596 
O 31.9602890 4.63503265 -5.30728626 
H 31.8654232 5.33371401 -5.94874525 
H 32.9006042 4.61355162 -5.05651712 
O 31.2636299 3.85324526 -2.64584422 
H 32.0970535 3.37154317 -2.56037450 
H 31.3360214 4.30540085 -3.49604487 
O 29.9177437 1.49519408 -2.93403339 
H 30.2693844 2.39051867 -2.78004766 
H 28.9674072 1.56342161 -2.90359640 
15
substructure 5-mer 205 from 7-mer
O 33.5499229 2.09409142 -3.07476282 
H 33.0564346 1.86612988 -3.87881517 
H 33.2643127 1.45625341 -2.40882516 
O 31.7724495 1.73055816 -5.20258570 
H 31.0368614 1.53843844 -4.60851002 
H 31.7169838 2.67530608 -5.39613819 
O 34.5234222 4.30420303 -4.38049650 
H 35.4639778 4.30160856 -4.53649902 
H 34.3386002 3.51740384 -3.84024596 
O 31.9602890 4.63503265 -5.30728626 
H 31.8654232 5.33371401 -5.94874525 
H 32.9006042 4.61355162 -5.05651712 
O 31.2636299 3.85324526 -2.64584422 
H 32.0970535 3.37154317 -2.56037450 
H 31.3360214 4.30540085 -3.49604487 
15
substructure 5-mer 206 from 7-mer
O 33.5499229 2.09409142 -3.07476282 
H 33.0564346 1.86612988 -3.87881517 
H 33.2643127 1.45625341 -2.40882516 
O 31.7724495 1.73055816 -5.20258570 
H 31.0368614 1.53843844 -4.60851002 
H 31.7169838 2.67530608 -5.39613819 
O 34.5234222 4.30420303 -4.38049650 
H 35.4639778 4.30160856 -4.53649902 
H 34.3386002 3.51740384 -3.84024596 
O 31.9602890 4.63503265 -5.30728626 
H 31.8654232 5.33371401 -5.94874525 
H 32.9006042 4.61355162 -5.05651712 
O 29.9177437 1.49519408 -2.93403339 
H 30.2693844 2.39051867 -2.78004766 
H 28.9674072 1.56342161 -2.90359640 
15
substructure 5-mer 207 from 7-mer
O 33.5499229 2.09409142 -3.07476282 
H 33.0564346 1.86612988 -3.87881517 
H 33.2643127 1.45625341 -2.40882516 
O 31.7724495 1.73055816 -5.20258570 
H 31.0368614 1.53843844 -4.60851002 
H 31.7169838 2.67530608 -5.39613819 
O 34.5234222 4.30420303 -4.38049650 
H 35.4639778 4.30160856 -4.53649902 
H 34.3386002 3.51740384 -3.84024596 
O 31.2636299 3.85324526 -2.64584422 
H 32.0970535 3.37154317 -2.56037450 
H 31.3360214 4.30540085 -3.49604487 
O 29.9177437 1.49519408 -2.93403339 
H 30.2693844 2.39051867 -2.78004766 
H 28.9674072 1.56342161 -2.90359640 
15
substructure 5-mer 208 from 7-mer
O 33.5499229 2.09409142 -3.07476282 
H 33.0564346 1.86612988 -3.87881517 
H 33.2643127 1.45625341 -2.40882516 
O 31.7724495 1.73055816 -5.20258570 
H 31.0368614 1.53843844 -4.60851002 
H 31.7169838 2.67530608 -5.39613819 
O 31.9602890 4.63503265 -5.30728626 
H 31.8654232 5.33371401 -5.94874525 
H 32.9006042 4.61355162 -5.05651712 
O 31.2636299 3.85324526 -2.64584422 
H 32.0970535 3.37154317 -2.56037450 
H 31.3360214 4.30540085 -3.49604487 
O 29.9177437 1.49519408 -2.93403339 
H 30.2693844 2.39051867 -2.78004766 
H 28.9674072 1.56342161 -2.90359640 
15
substructure 5-mer 209 from 7-mer
O 33.5499229 2.09409142 -3.07476282 
H 33.0564346 1.86612988 -3.87881517 
H 33.2643127 1.45625341 -2.40882516 
O 34.5234222 4.30420303 -4.38049650 
H 35.4639778 4.30160856 -4.53649902 
H 34.3386002 3.51740384 -3.84024596 
O 31.9602890 4.63503265 -5.30728626 
H 31.8654232 5.33371401 -5.94874525 
H 32.9006042 4.61355162 -5.05651712 
O 31.2636299 3.85324526 -2.64584422 
H 32.0970535 3.37154317 -2.56037450 
H 31.3360214 4.30540085 -3.49604487 
O 29.9177437 1.49519408 -2.93403339 
H 30.2693844 2.39051867 -2.78004766 
H 28.9674072 1.56342161 -2.90359640 
15
substructure 5-mer 210 from 7-mer
O 31.7724495 1.73055816 -5.20258570 
H 31.0368614 1.53843844 -4.60851002 
H 31.7169838 2.67530608 -5.39613819 
O 34.5234222 4.30420303 -4.38049650 
H 35.4639778 4.30160856 -4.53649902 
H 34.3386002 3.51740384 -3.84024596 
O 31.9602890 4.63503265 -5.30728626 
H 31.8654232 5.33371401 -5.94874525 
H 32.9006042 4.61355162 -5.05651712 
O 31.2636299 3.85324526 -2.64584422 
H 32.0970535 3.37154317 -2.56037450 
H 31.3360214 4.30540085 -3.49604487 
O 29.9177437 1.49519408 -2.93403339 
H 30.2693844 2.39051867 -2.78004766 
H 28.9674072 1.56342161 -2.90359640 
15
substructure 5-mer 211 from 7-mer
O 34.0418129 4.36105490 -3.29267025 
H 34.7984734 4.93635798 -3.35149980 
H 34.3840332 3.46323228 -3.12458181 
O 32.1095695 1.16056824 -2.09464788 
H 31.7842712 2.06332159 -1.98940277 
H 31.8943100 0.909414947 -3.00104189 
O 31.7555790 0.764953434 -4.98050833 
H 30.9817657 0.455243349 -5.44403076 
H 31.7489510 1.73547781 -5.04753208 
O 31.5292053 4.00445414 -2.09642172 
H 31.3096409 4.63400269 -1.41448915 
H 32.4261169 4.22555304 -2.39891839 
O 31.7805538 3.50380945 -4.89563131 
H 32.6761513 3.81550813 -4.71684408 
H 31.3124046 3.70035934 -4.07438707 
15
substructure 5-mer 212 from 7-mer
O 34.0418129 4.36105490 -3.29267025 
H 34.7984734 4.93635798 -3.35149980 
H 34.3840332 3.46323228 -3.12458181 
O 32.1095695 1.16056824 -2.09464788 
H 31.7842712 2.06332159 -1.98940277 
H 31.8943100 0.909414947 -3.00104189 
O 31.7555790 0.764953434 -4.98050833 
H 30.9817657 0.455243349 -5.44403076 
H 31.7489510 1.73547781 -5.04753208 
O 31.5292053 4.00445414 -2.09642172 
H 31.3096409 4.63400269 -1.41448915 
H 32.4261169 4.22555304 -2.39891839 
O 34.5254974 0.210789695 -5.12575722 
H 34.6818237 -0.719012678 -5.27617407 
H 33.5630913 0.323616654 -5.14280272 
15
substructure 5-mer 213 from 7-mer
O 34.0418129 4.36105490 -3.29267025 
H 34.7984734 4.93635798 -3.35149980 
H 34.3840332 3.46323228 -3.12458181 
O 32.1095695 1.16056824 -2.09464788 
H 31.7842712 2.06332159 -1.98940277 
H 31.8943100 0.909414947 -3.00104189 
O 31.7555790 0.764953434 -4.98050833 
H 30.9817657 0.455243349 -5.44403076 
H 31.7489510 1.73547781 -5.04753208 
O 31.5292053 4.00445414 -2.09642172 
H 31.3096409 4.63400269 -1.41448915 
H 32.4261169 4.22555304 -2.39891839 
O 34.7458763 1.80883443 -2.82811999 
H 33.9295235 1.49858832 -2.41062140 
H 34.8562546 1.25808358 -3.61449647 
15
substructure 5-mer 214 from 7-mer
O 34.0418129 4.36105490 -3.29267025 
H 34.7984734 4.93635798 -3.35149980 
H 34.3840332 3.46323228 -3.12458181 
O 32.1095695 1.16056824 -2.09464788 
H 31.7842712 2.06332159 -1.98940277 
H 31.8943100 0.909414947 -3.00104189 
O 31.7555790 0.764953434 -4.98050833 
H 30.9817657 0.455243349 -5.44403076 
H 31.7489510 1.73547781 -5.04753208 
O 31.7805538 3.50380945 -4.89563131 
H 32.6761513 3.81550813 -4.71684408 
H 31.3124046 3.70035934 -4.07438707 
O 34.5254974 0.210789695 -5.12575722 
H 34.6818237 -0.719012678 -5.27617407 
H 33.5630913 0.323616654 -5.14280272 
15
substructure 5-mer 215 from 7-mer
O 34.0418129 4.36105490 -3.29267025 
H 34.7984734 4.93635798 -3.35149980 
H 34.3840332 3.46323228 -3.12458181 
O 32.1095695 1.16056824 -2.09464788 
H 31.7842712 2.06332159 -1.98940277 
H 31.8943100 0.909414947 -3.00104189 
O 31.7555790 0.764953434 -4.98050833 
H 30.9817657 0.455243349 -5.44403076 
H 31.7489510 1.73547781 -5.04753208 
O 31.7805538 3.50380945 -4.89563131 
H 32.6761513 3.81550813 -4.71684408 
H 31.3124046 3.70035934 -4.07438707 
O 34.7458763 1.80883443 -2.82811999 
H 33.9295235 1.49858832 -2.41062140 
H 34.8562546 1.25808358 -3.61449647 
15
substructure 5-mer 216 from 7-mer
O 34.0418129 4.36105490 -3.29267025 
H 34.7984734 4.93635798 -3.35149980 
H 34.3840332 3.46323228 -3.12458181 
O 32.1095695 1.16056824 -2.09464788 
H 31.7842712 2.06332159 -1.98940277 
H 31.8943100 0.909414947 -3.00104189 
O 31.7555790 0.764953434 -4.98050833 
H 30.9817657 0.455243349 -5.44403076 
H 31.7489510 1.73547781 -5.04753208 
O 34.5254974 0.210789695 -5.12575722 
H 34.6818237 -0.719012678 -5.27617407 
H 33.5630913 0.323616654 -5.14280272 
O 34.7458763 1.80883443 -2.82811999 
H 33.9295235 1.49858832 -2.41062140 
H 34.8562546 1.25808358 -3.61449647 
15
substructure 5-mer 217 from 7-mer
O 34.0418129 4.36105490 -3.29267025 
H 34.7984734 4.93635798 -3.35149980 
H 34.3840332 3.46323228 -3.12458181 
O 32.1095695 1.16056824 -2.09464788 
H 31.7842712 2.06332159 -1.98940277 
H 31.8943100 0.909414947 -3.00104189 
O 31.5292053 4.00445414 -2.09642172 
H 31.3096409 4.63400269 -1.41448915 
H 32.4261169 4.22555304 -2.39891839 
O 31.7805538 3.50380945 -4.89563131 
H 32.6761513 3.81550813 -4.71684408 
H 31.3124046 3.70035934 -4.07438707 
O 34.5254974 0.210789695 -5.12575722 
H 34.6818237 -0.719012678 -5.27617407 
H 33.5630913 0.323616654 -5.14280272 
15
substructure 5-mer 218 from 7-mer
O 34.0418129 4.36105490 -3.29267025 
H 34.7984734 4.93635798 -3.35149980 
H 34.3840332 3.46323228 -3.12458181 
O 32.1095695 1.16056824 -2.09464788 
H 31.7842712 2.06332159 -1.98940277 
H 31.8943100 0.909414947 -3.00104189 
O 31.5292053 4.00445414 -2.09642172 
H 31.3096409 4.63400269 -1.41448915 
H 32.4261169 4.22555304 -2.39891839 
O 31.7805538 3.50380945 -4.89563131 
H 32.6761513 3.81550813 -4.71684408 
H 31.3124046 3.70035934 -4.07438707 
O 34.7458763 1.80883443 -2.82811999 
H 33.9295235 1.49858832 -2.41062140 
H 34.8562546 1.25808358 -3.61449647 
15
substructure 5-mer 219 from 7-mer
O 34.0418129 4.36105490 -3.29267025 
H 34.7984734 4.93635798 -3.35149980 
H 34.3840332 3.46323228 -3.12458181 
O 32.1095695 1.16056824 -2.09464788 
H 31.7842712 2.06332159 -1.98940277 
H 31.8943100 0.909414947 -3.00104189 
O 31.5292053 4.00445414 -2.09642172 
H 31.3096409 4.63400269 -1.41448915 
H 32.4261169 4.22555304 -2.39891839 
O 34.5254974 0.210789695 -5.12575722 
H 34.6818237 -0.719012678 -5.27617407 
H 33.5630913 0.323616654 -5.14280272 
O 34.7458763 1.80883443 -2.82811999 
H 33.9295235 1.49858832 -2.41062140 
H 34.8562546 1.25808358 -3.61449647 
15
substructure 5-mer 220 from 7-mer
O 34.0418129 4.36105490 -3.29267025 
H 34.7984734 4.93635798 -3.35149980 
H 34.3840332 3.46323228 -3.12458181 
O 32.1095695 1.16056824 -2.09464788 
H 31.7842712 2.06332159 -1.98940277 
H 31.8943100 0.909414947 -3.00104189 
O 31.7805538 3.50380945 -4.89563131 
H 32.6761513 3.81550813 -4.71684408 
H 31.3124046 3.70035934 -4.07438707 
O 34.5254974 0.210789695 -5.12575722 
H 34.6818237 -0.719012678 -5.27617407 
H 33.5630913 0.323616654 -5.14280272 
O 34.7458763 1.80883443 -2.82811999 
H 33.9295235 1.49858832 -2.41062140 
H 34.8562546 1.25808358 -3.61449647 
15
substructure 5-mer 221 from 7-mer
O 34.0418129 4.36105490 -3.29267025 
H 34.7984734 4.93635798 -3.35149980 
H 34.3840332 3.46323228 -3.12458181 
O 31.7555790 0.764953434 -4.98050833 
H 30.9817657 0.455243349 -5.44403076 
H 31.7489510 1.73547781 -5.04753208 
O 31.5292053 4.00445414 -2.09642172 
H 31.3096409 4.63400269 -1.41448915 
H 32.4261169 4.22555304 -2.39891839 
O 31.7805538 3.50380945 -4.89563131 
H 32.6761513 3.81550813 -4.71684408 
H 31.3124046 3.70035934 -4.07438707 
O 34.5254974 0.210789695 -5.12575722 
H 34.6818237 -0.719012678 -5.27617407 
H 33.5630913 0.323616654 -5.14280272 
15
substructure 5-mer 222 from 7-mer
O 34.0418129 4.36105490 -3.29267025 
H 34.7984734 4.93635798 -3.35149980 
H 34.3840332 3.46323228 -3.12458181 
O 31.7555790 0.764953434 -4.98050833 
H 30.9817657 0.455243349 -5.44403076 
H 31.7489510 1.73547781 -5.04753208 
O 31.5292053 4.00445414 -2.09642172 
H 31.3096409 4.63400269 -1.41448915 
H 32.4261169 4.22555304 -2.39891839 
O 31.7805538 3.50380945 -4.89563131 
H 32.6761513 3.81550813 -4.71684408 
H 31.3124046 3.70035934 -4.07438707 
O 34.7458763 1.80883443 -2.82811999 
H 33.9295235 1.49858832 -2.41062140 
H 34.8562546 1.25808358 -3.61449647 
15
substructure 5-mer 223 from 7-mer
O 34.0418129 4.36105490 -3.29267025 
H 34.7984734 4.93635798 -3.35149980 
H 34.3840332 3.46323228 -3.12458181 
O 31.7555790 0.764953434 -4.98050833 
H 30.9817657 0.455243349 -5.44403076 
H 31.7489510 1.73547781 -5.04753208 
O 31.5292053 4.00445414 -2.09642172 
H 31.3096409 4.63400269 -1.41448915 
H 32.4261169 4.22555304 -2.39891839 
O 34.5254974 0.210789695 -5.12575722 
H 34.6818237 -0.719012678 -5.27617407 
H 33.5630913 0.323616654 -5.14280272 
O 34.7458763 1.80883443 -2.82811999 
H 33.9295235 1.49858832 -2.41062140 
H 34.8562546 1.25808358 -3.61449647 
15
substructure 5-mer 224 from 7-mer
O 34.0418129 4.36105490 -3.29267025 
H 34.7984734 4.93635798 -3.35149980 
H 34.3840332 3.46323228 -3.12458181 
O 31.7555790 0.764953434 -4.98050833 
H 30.9817657 0.455243349 -5.44403076 
H 31.7489510 1.73547781 -5.04753208 
O 31.7805538 3.50380945 -4.89563131 
H 32.6761513 3.81550813 -4.71684408 
H 31.3124046 3.70035934 -4.07438707 
O 34.5254974 0.210789695 -5.12575722 
H 34.6818237 -0.719012678 -5.27617407 
H 33.5630913 0.323616654 -5.14280272 
O 34.7458763 1.80883443 -2.82811999 
H 33.9295235 1.49858832 -2.41062140 
H 34.8562546 1.25808358 -3.61449647 
15
substructure 5-mer 225 from 7-mer
O 34.0418129 4.36105490 -3.29267025 
H 34.7984734 4.93635798 -3.35149980 
H 34.3840332 3.46323228 -3.12458181 
O 31.5292053 4.00445414 -2.09642172 
H 31.3096409 4.63400269 -1.41448915 
H 32.4261169 4.22555304 -2.39891839 
O 31.7805538 3.50380945 -4.89563131 
H 32.6761513 3.81550813 -4.71684408 
H 31.3124046 3.70035934 -4.07438707 
O 34.5254974 0.210789695 -5.12575722 
H 34.6818237 -0.719012678 -5.27617407 
H 33.5630913 0.323616654 -5.14280272 
O 34.7458763 1.80883443 -2.82811999 
H 33.9295235 1.49858832 -2.41062140 
H 34.8562546 1.25808358 -3.61449647 
15
substructure 5-mer 226 from 7-mer
O 32.1095695 1.16056824 -2.09464788 
H 31.7842712 2.06332159 -1.98940277 
H 31.8943100 0.909414947 -3.00104189 
O 31.7555790 0.764953434 -4.98050833 
H 30.9817657 0.455243349 -5.44403076 
H 31.7489510 1.73547781 -5.04753208 
O 31.5292053 4.00445414 -2.09642172 
H 31.3096409 4.63400269 -1.41448915 
H 32.4261169 4.22555304 -2.39891839 
O 31.7805538 3.50380945 -4.89563131 
H 32.6761513 3.81550813 -4.71684408 
H 31.3124046 3.70035934 -4.07438707 
O 34.5254974 0.210789695 -5.12575722 
H 34.6818237 -0.719012678 -5.27617407 
H 33.5630913 0.323616654 -5.14280272 
15
substructure 5-mer 227 from 7-mer
O 32.1095695 1.16056824 -2.09464788 
H 31.7842712 2.06332159 -1.98940277 
H 31.8943100 0.909414947 -3.00104189 
O 31.7555790 0.764953434 -4.98050833 
H 30.9817657 0.455243349 -5.44403076 
H 31.7489510 1.73547781 -5.04753208 
O 31.5292053 4.00445414 -2.09642172 
H 31.3096409 4.63400269 -1.41448915 
H 32.4261169 4.22555304 -2.39891839 
O 31.7805538 3.50380945 -4.89563131 
H 32.6761513 3.81550813 -4.71684408 
H 31.3124046 3.70035934 -4.07438707 
O 34.7458763 1.80883443 -2.82811999 
H 33.9295235 1.49858832 -2.41062140 
H 34.8562546 1.25808358 -3.61449647 
15
substructure 5-mer 228 from 7-mer
O 32.1095695 1.16056824 -2.09464788 
H 31.7842712 2.06332159 -1.98940277 
H 31.8943100 0.909414947 -3.00104189 
O 31.7555790 0.764953434 -4.98050833 
H 30.9817657 0.455243349 -5.44403076 
H 31.7489510 1.73547781 -5.04753208 
O 31.5292053 4.00445414 -2.09642172 
H 31.3096409 4.63400269 -1.41448915 
H 32.4261169 4.22555304 -2.39891839 
O 34.5254974 0.210789695 -5.12575722 
H 34.6818237 -0.719012678 -5.27617407 
H 33.5630913 0.323616654 -5.14280272 
O 34.7458763 1.80883443 -2.82811999 
H 33.9295235 1.49858832 -2.41062140 
H 34.8562546 1.25808358 -3.61449647 
15
substructure 5-mer 229 from 7-mer
O 32.1095695 1.16056824 -2.09464788 
H 31.7842712 2.06332159 -1.98940277 
H 31.8943100 0.909414947 -3.00104189 
O 31.7555790 0.764953434 -4.98050833 
H 30.9817657 0.455243349 -5.44403076 
H 31.7489510 1.73547781 -5.04753208 
O 31.7805538 3.50380945 -4.89563131 
H 32.6761513 3.81550813 -4.71684408 
H 31.3124046 3.70035934 -4.07438707 
O 34.5254974 0.210789695 -5.12575722 
H 34.6818237 -0.719012678 -5.27617407 
H 33.5630913 0.323616654 -5.14280272 
O 34.7458763 1.80883443 -2.82811999 
H 33.9295235 1.49858832 -2.41062140 
H 34.8562546 1.25808358 -3.61449647 
15
substructure 5-mer 230 from 7-mer
O 32.1095695 1.16056824 -2.09464788 
H 31.7842712 2.06332159 -1.98940277 
H 31.8943100 0.909414947 -3.00104189 
O 31.5292053 4.00445414 -2.09642172 
H 31.3096409 4.63400269 -1.41448915 
H 32.4261169 4.22555304 -2.39891839 
O 31.7805538 3.50380945 -4.89563131 
H 32.6761513 3.81550813 -4.71684408 
H 31.3124046 3.70035934 -4.07438707 
O 34.5254974 0.210789695 -5.12575722 
H 34.6818237 -0.719012678 -5.27617407 
H 33.5630913 0.323616654 -5.14280272 
O 34.7458763 1.80883443 -2.82811999 
H 33.9295235 1.49858832 -2.41062140 
H 34.8562546 1.25808358 -3.61449647 
15
substructure 5-mer 231 from 7-mer
O 31.7555790 0.764953434 -4.98050833 
H 30.9817657 0.455243349 -5.44403076 
H 31.7489510 1.73547781 -5.04753208 
O 31.5292053 4.00445414 -2.09642172 
H 31.3096409 4.63400269 -1.41448915 
H 32.4261169 4.22555304 -2.39891839 
O 31.7805538 3.50380945 -4.89563131 
H 32.6761513 3.81550813 -4.71684408 
H 31.3124046 3.70035934 -4.07438707 
O 34.5254974 0.210789695 -5.12575722 
H 34.6818237 -0.719012678 -5.27617407 
H 33.5630913 0.323616654 -5.14280272 
O 34.7458763 1.80883443 -2.82811999 
H 33.9295235 1.49858832 -2.41062140 
H 34.8562546 1.25808358 -3.61449647 
15
substructure 5-mer 232 from 7-mer
O 32.7681923 4.20451117 -5.32485151 
H 32.3260651 4.62041092 -4.57035732 
H 33.5711327 3.80600882 -4.96278524 
O 31.0684147 2.23046446 -6.01211452 
H 30.4035358 2.55370951 -6.61313200 
H 31.6828976 2.96956015 -5.84447908 
O 31.4139729 4.91187096 -2.98620439 
H 30.7107048 5.38208818 -2.54630876 
H 31.1941128 3.96880770 -2.90575218 
O 30.9081879 2.18408298 -3.10856223 
H 31.7037811 1.66506660 -2.94003248 
H 30.7789459 2.13977957 -4.06415987 
O 32.7484779 4.70790602E-02 -5.68620014 
H 32.1211891 0.760346711 -5.88652420 
H 33.3308945 -8.95981956E-03 -6.44067669 
15
substructure 5-mer 233 from 7-mer
O 32.7681923 4.20451117 -5.32485151 
H 32.3260651 4.62041092 -4.57035732 
H 33.5711327 3.80600882 -4.96278524 
O 31.0684147 2.23046446 -6.01211452 
H 30.4035358 2.55370951 -6.61313200 
H 31.6828976 2.96956015 -5.84447908 
O 31.4139729 4.91187096 -2.98620439 
H 30.7107048 5.38208818 -2.54630876 
H 31.1941128 3.96880770 -2.90575218 
O 30.9081879 2.18408298 -3.10856223 
H 31.7037811 1.66506660 -2.94003248 
H 30.7789459 2.13977957 -4.06415987 
O 34.8647385 2.89676189 -3.95894504 
H 35.2606049 3.34588218 -3.21412683 
H 34.4033585 2.13138366 -3.58689547 
15
substructure 5-mer 234 from 7-mer
O 32.7681923 4.20451117 -5.32485151 
H 32.3260651 4.62041092 -4.57035732 
H 33.5711327 3.80600882 -4.96278524 
O 31.0684147 2.23046446 -6.01211452 
H 30.4035358 2.55370951 -6.61313200 
H 31.6828976 2.96956015 -5.84447908 
O 31.4139729 4.91187096 -2.98620439 
H 30.7107048 5.38208818 -2.54630876 
H 31.1941128 3.96880770 -2.90575218 
O 30.9081879 2.18408298 -3.10856223 
H 31.7037811 1.66506660 -2.94003248 
H 30.7789459 2.13977957 -4.06415987 
O 33.3586006 0.647443414 -3.09047437 
H 33.5196648 -0.132686913 -2.56606174 
H 33.1684608 0.341248393 -3.99472642 
15
substructure 5-mer 235 from 7-mer
O 32.7681923 4.20451117 -5.32485151 
H 32.3260651 4.62041092 -4.57035732 
H 33.5711327 3.80600882 -4.96278524 
O 31.0684147 2.23046446 -6.01211452 
H 30.4035358 2.55370951 -6.61313200 
H 31.6828976 2.96956015 -5.84447908 
O 31.4139729 4.91187096 -2.98620439 
H 30.7107048 5.38208818 -2.54630876 
H 31.1941128 3.96880770 -2.90575218 
O 32.7484779 4.70790602E-02 -5.68620014 
H 32.1211891 0.760346711 -5.88652420 
H 33.3308945 -8.95981956E-03 -6.44067669 
O 34.8647385 2.89676189 -3.95894504 
H 35.2606049 3.34588218 -3.21412683 
H 34.4033585 2.13138366 -3.58689547 
15
substructure 5-mer 236 from 7-mer
O 32.7681923 4.20451117 -5.32485151 
H 32.3260651 4.62041092 -4.57035732 
H 33.5711327 3.80600882 -4.96278524 
O 31.0684147 2.23046446 -6.01211452 
H 30.4035358 2.55370951 -6.61313200 
H 31.6828976 2.96956015 -5.84447908 
O 31.4139729 4.91187096 -2.98620439 
H 30.7107048 5.38208818 -2.54630876 
H 31.1941128 3.96880770 -2.90575218 
O 32.7484779 4.70790602E-02 -5.68620014 
H 32.1211891 0.760346711 -5.88652420 
H 33.3308945 -8.95981956E-03 -6.44067669 
O 33.3586006 0.647443414 -3.09047437 
H 33.5196648 -0.132686913 -2.56606174 
H 33.1684608 0.341248393 -3.99472642 
15
substructure 5-mer 237 from 7-mer
O 32.7681923 4.20451117 -5.32485151 
H 32.3260651 4.62041092 -4.57035732 
H 33.5711327 3.80600882 -4.96278524 
O 31.0684147 2.23046446 -6.01211452 
H 30.4035358 2.55370951 -6.61313200 
H 31.6828976 2.96956015 -5.84447908 
O 31.4139729 4.91187096 -2.98620439 
H 30.7107048 5.38208818 -2.54630876 
H 31.1941128 3.96880770 -2.90575218 
O 34.8647385 2.89676189 -3.95894504 
H 35.2606049 3.34588218 -3.21412683 
H 34.4033585 2.13138366 -3.58689547 
O 33.3586006 0.647443414 -3.09047437 
H 33.5196648 -0.132686913 -2.56606174 
H 33.1684608 0.341248393 -3.99472642 
15
substructure 5-mer 238 from 7-mer
O 32.7681923 4.20451117 -5.32485151 
H 32.3260651 4.62041092 -4.57035732 
H 33.5711327 3.80600882 -4.96278524 
O 31.0684147 2.23046446 -6.01211452 
H 30.4035358 2.55370951 -6.61313200 
H 31.6828976 2.96956015 -5.84447908 
O 30.9081879 2.18408298 -3.10856223 
H 31.7037811 1.66506660 -2.94003248 
H 30.7789459 2.13977957 -4.06415987 
O 32.7484779 4.70790602E-02 -5.68620014 
H 32.1211891 0.760346711 -5.88652420 
H 33.3308945 -8.95981956E-03 -6.44067669 
O 34.8647385 2.89676189 -3.95894504 
H 35.2606049 3.34588218 -3.21412683 
H 34.4033585 2.13138366 -3.58689547 
15
substructure 5-mer 239 from 7-mer
O 32.7681923 4.20451117 -5.32485151 
H 32.3260651 4.62041092 -4.57035732 
H 33.5711327 3.80600882 -4.96278524 
O 31.0684147 2.23046446 -6.01211452 
H 30.4035358 2.55370951 -6.61313200 
H 31.6828976 2.96956015 -5.84447908 
O 30.9081879 2.18408298 -3.10856223 
H 31.7037811 1.66506660 -2.94003248 
H 30.7789459 2.13977957 -4.06415987 
O 32.7484779 4.70790602E-02 -5.68620014 
H 32.1211891 0.760346711 -5.88652420 
H 33.3308945 -8.95981956E-03 -6.44067669 
O 33.3586006 0.647443414 -3.09047437 
H 33.5196648 -0.132686913 -2.56606174 
H 33.1684608 0.341248393 -3.99472642 
15
substructure 5-mer 240 from 7-mer
O 32.7681923 4.20451117 -5.32485151 
H 32.3260651 4.62041092 -4.57035732 
H 33.5711327 3.80600882 -4.96278524 
O 31.0684147 2.23046446 -6.01211452 
H 30.4035358 2.55370951 -6.61313200 
H 31.6828976 2.96956015 -5.84447908 
O 30.9081879 2.18408298 -3.10856223 
H 31.7037811 1.66506660 -2.94003248 
H 30.7789459 2.13977957 -4.06415987 
O 34.8647385 2.89676189 -3.95894504 
H 35.2606049 3.34588218 -3.21412683 
H 34.4033585 2.13138366 -3.58689547 
O 33.3586006 0.647443414 -3.09047437 
H 33.5196648 -0.132686913 -2.56606174 
H 33.1684608 0.341248393 -3.99472642 
15
substructure 5-mer 241 from 7-mer
O 32.7681923 4.20451117 -5.32485151 
H 32.3260651 4.62041092 -4.57035732 
H 33.5711327 3.80600882 -4.96278524 
O 31.0684147 2.23046446 -6.01211452 
H 30.4035358 2.55370951 -6.61313200 
H 31.6828976 2.96956015 -5.84447908 
O 32.7484779 4.70790602E-02 -5.68620014 
H 32.1211891 0.760346711 -5.88652420 
H 33.3308945 -8.95981956E-03 -6.44067669 
O 34.8647385 2.89676189 -3.95894504 
H 35.2606049 3.34588218 -3.21412683 
H 34.4033585 2.13138366 -3.58689547 
O 33.3586006 0.647443414 -3.09047437 
H 33.5196648 -0.132686913 -2.56606174 
H 33.1684608 0.341248393 -3.99472642 
15
substructure 5-mer 242 from 7-mer
O 32.7681923 4.20451117 -5.32485151 
H 32.3260651 4.62041092 -4.57035732 
H 33.5711327 3.80600882 -4.96278524 
O 31.4139729 4.91187096 -2.98620439 
H 30.7107048 5.38208818 -2.54630876 
H 31.1941128 3.96880770 -2.90575218 
O 30.9081879 2.18408298 -3.10856223 
H 31.7037811 1.66506660 -2.94003248 
H 30.7789459 2.13977957 -4.06415987 
O 32.7484779 4.70790602E-02 -5.68620014 
H 32.1211891 0.760346711 -5.88652420 
H 33.3308945 -8.95981956E-03 -6.44067669 
O 34.8647385 2.89676189 -3.95894504 
H 35.2606049 3.34588218 -3.21412683 
H 34.4033585 2.13138366 -3.58689547 
15
substructure 5-mer 243 from 7-mer
O 32.7681923 4.20451117 -5.32485151 
H 32.3260651 4.62041092 -4.57035732 
H 33.5711327 3.80600882 -4.96278524 
O 31.4139729 4.91187096 -2.98620439 
H 30.7107048 5.38208818 -2.54630876 
H 31.1941128 3.96880770 -2.90575218 
O 30.9081879 2.18408298 -3.10856223 
H 31.7037811 1.66506660 -2.94003248 
H 30.7789459 2.13977957 -4.06415987 
O 32.7484779 4.70790602E-02 -5.68620014 
H 32.1211891 0.760346711 -5.88652420 
H 33.3308945 -8.95981956E-03 -6.44067669 
O 33.3586006 0.647443414 -3.09047437 
H 33.5196648 -0.132686913 -2.56606174 
H 33.1684608 0.341248393 -3.99472642 
15
substructure 5-mer 244 from 7-mer
O 32.7681923 4.20451117 -5.32485151 
H 32.3260651 4.62041092 -4.57035732 
H 33.5711327 3.80600882 -4.96278524 
O 31.4139729 4.91187096 -2.98620439 
H 30.7107048 5.38208818 -2.54630876 
H 31.1941128 3.96880770 -2.90575218 
O 30.9081879 2.18408298 -3.10856223 
H 31.7037811 1.66506660 -2.94003248 
H 30.7789459 2.13977957 -4.06415987 
O 34.8647385 2.89676189 -3.95894504 
H 35.2606049 3.34588218 -3.21412683 
H 34.4033585 2.13138366 -3.58689547 
O 33.3586006 0.647443414 -3.09047437 
H 33.5196648 -0.132686913 -2.56606174 
H 33.1684608 0.341248393 -3.99472642 
15
substructure 5-mer 245 from 7-mer
O 32.7681923 4.20451117 -5.32485151 
H 32.3260651 4.62041092 -4.57035732 
H 33.5711327 3.80600882 -4.96278524 
O 31.4139729 4.91187096 -2.98620439 
H 30.7107048 5.38208818 -2.54630876 
H 31.1941128 3.96880770 -2.90575218 
O 32.7484779 4.70790602E-02 -5.68620014 
H 32.1211891 0.760346711 -5.88652420 
H 33.3308945 -8.95981956E-03 -6.44067669 
O 34.8647385 2.89676189 -3.95894504 
H 35.2606049 3.34588218 -3.21412683 
H 34.4033585 2.13138366 -3.58689547 
O 33.3586006 0.647443414 -3.09047437 
H 33.5196648 -0.132686913 -2.56606174 
H 33.1684608 0.341248393 -3.99472642 
15
substructure 5-mer 246 from 7-mer
O 32.7681923 4.20451117 -5.32485151 
H 32.3260651 4.62041092 -4.57035732 
H 33.5711327 3.80600882 -4.96278524 
O 30.9081879 2.18408298 -3.10856223 
H 31.7037811 1.66506660 -2.94003248 
H 30.7789459 2.13977957 -4.06415987 
O 32.7484779 4.70790602E-02 -5.68620014 
H 32.1211891 0.760346711 -5.88652420 
H 33.3308945 -8.95981956E-03 -6.44067669 
O 34.8647385 2.89676189 -3.95894504 
H 35.2606049 3.34588218 -3.21412683 
H 34.4033585 2.13138366 -3.58689547 
O 33.3586006 0.647443414 -3.09047437 
H 33.5196648 -0.132686913 -2.56606174 
H 33.1684608 0.341248393 -3.99472642 
15
substructure 5-mer 247 from 7-mer
O 31.0684147 2.23046446 -6.01211452 
H 30.4035358 2.55370951 -6.61313200 
H 31.6828976 2.96956015 -5.84447908 
O 31.4139729 4.91187096 -2.98620439 
H 30.7107048 5.38208818 -2.54630876 
H 31.1941128 3.96880770 -2.90575218 
O 30.9081879 2.18408298 -3.10856223 
H 31.7037811 1.66506660 -2.94003248 
H 30.7789459 2.13977957 -4.06415987 
O 32.7484779 4.70790602E-02 -5.68620014 
H 32.1211891 0.760346711 -5.88652420 
H 33.3308945 -8.95981956E-03 -6.44067669 
O 34.8647385 2.89676189 -3.95894504 
H 35.2606049 3.34588218 -3.21412683 
H 34.4033585 2.13138366 -3.58689547 
15
substructure 5-mer 248 from 7-mer
O 31.0684147 2.23046446 -6.01211452 
H 30.4035358 2.55370951 -6.61313200 
H 31.6828976 2.96956015 -5.84447908 
O 31.4139729 4.91187096 -2.98620439 
H 30.7107048 5.38208818 -2.54630876 
H 31.1941128 3.96880770 -2.90575218 
O 30.9081879 2.18408298 -3.10856223 
H 31.7037811 1.66506660 -2.94003248 
H 30.7789459 2.13977957 -4.06415987 
O 32.7484779 4.70790602E-02 -5.68620014 
H 32.1211891 0.760346711 -5.88652420 
H 33.3308945 -8.95981956E-03 -6.44067669 
O 33.3586006 0.647443414 -3.09047437 
H 33.5196648 -0.132686913 -2.56606174 
H 33.1684608 0.341248393 -3.99472642 
15
substructure 5-mer 249 from 7-mer
O 31.0684147 2.23046446 -6.01211452 
H 30.4035358 2.55370951 -6.61313200 
H 31.6828976 2.96956015 -5.84447908 
O 31.4139729 4.91187096 -2.98620439 
H 30.7107048 5.38208818 -2.54630876 
H 31.1941128 3.96880770 -2.90575218 
O 30.9081879 2.18408298 -3.10856223 
H 31.7037811 1.66506660 -2.94003248 
H 30.7789459 2.13977957 -4.06415987 
O 34.8647385 2.89676189 -3.95894504 
H 35.2606049 3.34588218 -3.21412683 
H 34.4033585 2.13138366 -3.58689547 
O 33.3586006 0.647443414 -3.09047437 
H 33.5196648 -0.132686913 -2.56606174 
H 33.1684608 0.341248393 -3.99472642 
15
substructure 5-mer 250 from 7-mer
O 31.0684147 2.23046446 -6.01211452 
H 30.4035358 2.55370951 -6.61313200 
H 31.6828976 2.96956015 -5.84447908 
O 31.4139729 4.91187096 -2.98620439 
H 30.7107048 5.38208818 -2.54630876 
H 31.1941128 3.96880770 -2.90575218 
O 32.7484779 4.70790602E-02 -5.68620014 
H 32.1211891 0.760346711 -5.88652420 
H 33.3308945 -8.95981956E-03 -6.44067669 
O 34.8647385 2.89676189 -3.95894504 
H 35.2606049 3.34588218 -3.21412683 
H 34.4033585 2.13138366 -3.58689547 
O 33.3586006 0.647443414 -3.09047437 
H 33.5196648 -0.132686913 -2.56606174 
H 33.1684608 0.341248393 -3.99472642 
15
substructure 5-mer 251 from 7-mer
O 31.0684147 2.23046446 -6.01211452 
H 30.4035358 2.55370951 -6.61313200 
H 31.6828976 2.96956015 -5.84447908 
O 30.9081879 2.18408298 -3.10856223 
H 31.7037811 1.66506660 -2.94003248 
H 30.7789459 2.13977957 -4.06415987 
O 32.7484779 4.70790602E-02 -5.68620014 
H 32.1211891 0.760346711 -5.88652420 
H 33.3308945 -8.95981956E-03 -6.44067669 
O 34.8647385 2.89676189 -3.95894504 
H 35.2606049 3.34588218 -3.21412683 
H 34.4033585 2.13138366 -3.58689547 
O 33.3586006 0.647443414 -3.09047437 
H 33.5196648 -0.132686913 -2.56606174 
H 33.1684608 0.341248393 -3.99472642 
15
substructure 5-mer 252 from 7-mer
O 31.4139729 4.91187096 -2.98620439 
H 30.7107048 5.38208818 -2.54630876 
H 31.1941128 3.96880770 -2.90575218 
O 30.9081879 2.18408298 -3.10856223 
H 31.7037811 1.66506660 -2.94003248 
H 30.7789459 2.13977957 -4.06415987 
O 32.7484779 4.70790602E-02 -5.68620014 
H 32.1211891 0.760346711 -5.88652420 
H 33.3308945 -8.95981956E-03 -6.44067669 
O 34.8647385 2.89676189 -3.95894504 
H 35.2606049 3.34588218 -3.21412683 
H 34.4033585 2.13138366 -3.58689547 
O 33.3586006 0.647443414 -3.09047437 
H 33.5196648 -0.132686913 -2.56606174 
H 33.1684608 0.341248393 -3.99472642 
15
substructure 5-mer 253 from 7-mer
O 32.8639526 3.51032925 -7.24282551 
H 33.3222847 2.87803173 -6.66218853 
H 33.3789825 3.56553864 -8.04321671 
O 31.1095371 3.54558849 -3.45079875 
H 30.6000118 3.70125651 -2.65915370 
H 31.4101276 2.62366676 -3.41169810 
O 31.9596119 0.875960946 -3.63843918 
H 32.0980186 0.120436847 -3.07364941 
H 31.3483162 0.595192730 -4.34315252 
O 30.2290096 0.375815958 -5.65886116 
H 29.7691231 -0.139294788 -6.31505680 
H 30.1635132 1.30411375 -5.94394493 
O 30.2974815 3.05467987 -6.18166065 
H 31.1109810 3.25899076 -6.66355944 
H 30.4361248 3.38533926 -5.28593683 
15
substructure 5-mer 254 from 7-mer
O 32.8639526 3.51032925 -7.24282551 
H 33.3222847 2.87803173 -6.66218853 
H 33.3789825 3.56553864 -8.04321671 
O 31.1095371 3.54558849 -3.45079875 
H 30.6000118 3.70125651 -2.65915370 
H 31.4101276 2.62366676 -3.41169810 
O 31.9596119 0.875960946 -3.63843918 
H 32.0980186 0.120436847 -3.07364941 
H 31.3483162 0.595192730 -4.34315252 
O 30.2290096 0.375815958 -5.65886116 
H 29.7691231 -0.139294788 -6.31505680 
H 30.1635132 1.30411375 -5.94394493 
O 34.0806007 2.05304384 -5.24780560 
H 33.4581413 1.54362535 -4.71724749 
H 34.1013031 2.93446994 -4.84619379 
15
substructure 5-mer 255 from 7-mer
O 32.8639526 3.51032925 -7.24282551 
H 33.3222847 2.87803173 -6.66218853 
H 33.3789825 3.56553864 -8.04321671 
O 31.1095371 3.54558849 -3.45079875 
H 30.6000118 3.70125651 -2.65915370 
H 31.4101276 2.62366676 -3.41169810 
O 31.9596119 0.875960946 -3.63843918 
H 32.0980186 0.120436847 -3.07364941 
H 31.3483162 0.595192730 -4.34315252 
O 30.2290096 0.375815958 -5.65886116 
H 29.7691231 -0.139294788 -6.31505680 
H 30.1635132 1.30411375 -5.94394493 
O 33.4598694 4.72827625 -4.60811186 
H 33.2258034 4.68727207 -5.54252052 
H 32.6543312 4.47831917 -4.13662720 
15
substructure 5-mer 256 from 7-mer
O 32.8639526 3.51032925 -7.24282551 
H 33.3222847 2.87803173 -6.66218853 
H 33.3789825 3.56553864 -8.04321671 
O 31.1095371 3.54558849 -3.45079875 
H 30.6000118 3.70125651 -2.65915370 
H 31.4101276 2.62366676 -3.41169810 
O 31.9596119 0.875960946 -3.63843918 
H 32.0980186 0.120436847 -3.07364941 
H 31.3483162 0.595192730 -4.34315252 
O 30.2974815 3.05467987 -6.18166065 
H 31.1109810 3.25899076 -6.66355944 
H 30.4361248 3.38533926 -5.28593683 
O 34.0806007 2.05304384 -5.24780560 
H 33.4581413 1.54362535 -4.71724749 
H 34.1013031 2.93446994 -4.84619379 
15
substructure 5-mer 257 from 7-mer
O 32.8639526 3.51032925 -7.24282551 
H 33.3222847 2.87803173 -6.66218853 
H 33.3789825 3.56553864 -8.04321671 
O 31.1095371 3.54558849 -3.45079875 
H 30.6000118 3.70125651 -2.65915370 
H 31.4101276 2.62366676 -3.41169810 
O 31.9596119 0.875960946 -3.63843918 
H 32.0980186 0.120436847 -3.07364941 
H 31.3483162 0.595192730 -4.34315252 
O 30.2974815 3.05467987 -6.18166065 
H 31.1109810 3.25899076 -6.66355944 
H 30.4361248 3.38533926 -5.28593683 
O 33.4598694 4.72827625 -4.60811186 
H 33.2258034 4.68727207 -5.54252052 
H 32.6543312 4.47831917 -4.13662720 
15
substructure 5-mer 258 from 7-mer
O 32.8639526 3.51032925 -7.24282551 
H 33.3222847 2.87803173 -6.66218853 
H 33.3789825 3.56553864 -8.04321671 
O 31.1095371 3.54558849 -3.45079875 
H 30.6000118 3.70125651 -2.65915370 
H 31.4101276 2.62366676 -3.41169810 
O 31.9596119 0.875960946 -3.63843918 
H 32.0980186 0.120436847 -3.07364941 
H 31.3483162 0.595192730 -4.34315252 
O 34.0806007 2.05304384 -5.24780560 
H 33.4581413 1.54362535 -4.71724749 
H 34.1013031 2.93446994 -4.84619379 
O 33.4598694 4.72827625 -4.60811186 
H 33.2258034 4.68727207 -5.54252052 
H 32.6543312 4.47831917 -4.13662720 
15
substructure 5-mer 259 from 7-mer
O 32.8639526 3.51032925 -7.24282551 
H 33.3222847 2.87803173 -6.66218853 
H 33.3789825 3.56553864 -8.04321671 
O 31.1095371 3.54558849 -3.45079875 
H 30.6000118 3.70125651 -2.65915370 
H 31.4101276 2.62366676 -3.41169810 
O 30.2290096 0.375815958 -5.65886116 
H 29.7691231 -0.139294788 -6.31505680 
H 30.1635132 1.30411375 -5.94394493 
O 30.2974815 3.05467987 -6.18166065 
H 31.1109810 3.25899076 -6.66355944 
H 30.4361248 3.38533926 -5.28593683 
O 34.0806007 2.05304384 -5.24780560 
H 33.4581413 1.54362535 -4.71724749 
H 34.1013031 2.93446994 -4.84619379 
15
substructure 5-mer 260 from 7-mer
O 32.8639526 3.51032925 -7.24282551 
H 33.3222847 2.87803173 -6.66218853 
H 33.3789825 3.56553864 -8.04321671 
O 31.1095371 3.54558849 -3.45079875 
H 30.6000118 3.70125651 -2.65915370 
H 31.4101276 2.62366676 -3.41169810 
O 30.2290096 0.375815958 -5.65886116 
H 29.7691231 -0.139294788 -6.31505680 
H 30.1635132 1.30411375 -5.94394493 
O 30.2974815 3.05467987 -6.18166065 
H 31.1109810 3.25899076 -6.66355944 
H 30.4361248 3.38533926 -5.28593683 
O 33.4598694 4.72827625 -4.60811186 
H 33.2258034 4.68727207 -5.54252052 
H 32.6543312 4.47831917 -4.13662720 
15
substructure 5-mer 261 from 7-mer
O 32.8639526 3.51032925 -7.24282551 
H 33.3222847 2.87803173 -6.66218853 
H 33.3789825 3.56553864 -8.04321671 
O 31.1095371 3.54558849 -3.45079875 
H 30.6000118 3.70125651 -2.65915370 
H 31.4101276 2.62366676 -3.41169810 
O 30.2290096 0.375815958 -5.65886116 
H 29.7691231 -0.139294788 -6.31505680 
H 30.1635132 1.30411375 -5.94394493 
O 34.0806007 2.05304384 -5.24780560 
H 33.4581413 1.54362535 -4.71724749 
H 34.1013031 2.93446994 -4.84619379 
O 33.4598694 4.72827625 -4.60811186 
H 33.2258034 4.68727207 -5.54252052 
H 32.6543312 4.47831917 -4.13662720 
15
substructure 5-mer 262 from 7-mer
O 32.8639526 3.51032925 -7.24282551 
H 33.3222847 2.87803173 -6.66218853 
H 33.3789825 3.56553864 -8.04321671 
O 31.1095371 3.54558849 -3.45079875 
H 30.6000118 3.70125651 -2.65915370 
H 31.4101276 2.62366676 -3.41169810 
O 30.2974815 3.05467987 -6.18166065 
H 31.1109810 3.25899076 -6.66355944 
H 30.4361248 3.38533926 -5.28593683 
O 34.0806007 2.05304384 -5.24780560 
H 33.4581413 1.54362535 -4.71724749 
H 34.1013031 2.93446994 -4.84619379 
O 33.4598694 4.72827625 -4.60811186 
H 33.2258034 4.68727207 -5.54252052 
H 32.6543312 4.47831917 -4.13662720 
15
substructure 5-mer 263 from 7-mer
O 32.8639526 3.51032925 -7.24282551 
H 33.3222847 2.87803173 -6.66218853 
H 33.3789825 3.56553864 -8.04321671 
O 31.9596119 0.875960946 -3.63843918 
H 32.0980186 0.120436847 -3.07364941 
H 31.3483162 0.595192730 -4.34315252 
O 30.2290096 0.375815958 -5.65886116 
H 29.7691231 -0.139294788 -6.31505680 
H 30.1635132 1.30411375 -5.94394493 
O 30.2974815 3.05467987 -6.18166065 
H 31.1109810 3.25899076 -6.66355944 
H 30.4361248 3.38533926 -5.28593683 
O 34.0806007 2.05304384 -5.24780560 
H 33.4581413 1.54362535 -4.71724749 
H 34.1013031 2.93446994 -4.84619379 
15
substructure 5-mer 264 from 7-mer
O 32.8639526 3.51032925 -7.24282551 
H 33.3222847 2.87803173 -6.66218853 
H 33.3789825 3.56553864 -8.04321671 
O 31.9596119 0.875960946 -3.63843918 
H 32.0980186 0.120436847 -3.07364941 
H 31.3483162 0.595192730 -4.34315252 
O 30.2290096 0.375815958 -5.65886116 
H 29.7691231 -0.139294788 -6.31505680 
H 30.1635132 1.30411375 -5.94394493 
O 30.2974815 3.05467987 -6.18166065 
H 31.1109810 3.25899076 -6.66355944 
H 30.4361248 3.38533926 -5.28593683 
O 33.4598694 4.72827625 -4.60811186 
H 33.2258034 4.68727207 -5.54252052 
H 32.6543312 4.47831917 -4.13662720 
15
substructure 5-mer 265 from 7-mer
O 32.8639526 3.51032925 -7.24282551 
H 33.3222847 2.87803173 -6.66218853 
H 33.3789825 3.56553864 -8.04321671 
O 31.9596119 0.875960946 -3.63843918 
H 32.0980186 0.120436847 -3.07364941 
H 31.3483162 0.595192730 -4.34315252 
O 30.2290096 0.375815958 -5.65886116 
H 29.7691231 -0.139294788 -6.31505680 
H 30.1635132 1.30411375 -5.94394493 
O 34.0806007 2.05304384 -5.24780560 
H 33.4581413 1.54362535 -4.71724749 
H 34.1013031 2.93446994 -4.84619379 
O 33.4598694 4.72827625 -4.60811186 
H 33.2258034 4.68727207 -5.54252052 
H 32.6543312 4.47831917 -4.13662720 
15
substructure 5-mer 266 from 7-mer
O 32.8639526 3.51032925 -7.24282551 
H 33.3222847 2.87803173 -6.66218853 
H 33.3789825 3.56553864 -8.04321671 
O 31.9596119 0.875960946 -3.63843918 
H 32.0980186 0.120436847 -3.07364941 
H 31.3483162 0.595192730 -4.34315252 
O 30.2974815 3.05467987 -6.18166065 
H 31.1109810 3.25899076 -6.66355944 
H 30.4361248 3.38533926 -5.28593683 
O 34.0806007 2.05304384 -5.24780560 
H 33.4581413 1.54362535 -4.71724749 
H 34.1013031 2.93446994 -4.84619379 
O 33.4598694 4.72827625 -4.60811186 
H 33.2258034 4.68727207 -5.54252052 
H 32.6543312 4.47831917 -4.13662720 
15
substructure 5-mer 267 from 7-mer
O 32.8639526 3.51032925 -7.24282551 
H 33.3222847 2.87803173 -6.66218853 
H 33.3789825 3.56553864 -8.04321671 
O 30.2290096 0.375815958 -5.65886116 
H 29.7691231 -0.139294788 -6.31505680 
H 30.1635132 1.30411375 -5.94394493 
O 30.2974815 3.05467987 -6.18166065 
H 31.1109810 3.25899076 -6.66355944 
H 30.4361248 3.38533926 -5.28593683 
O 34.0806007 2.05304384 -5.24780560 
H 33.4581413 1.54362535 -4.71724749 
H 34.1013031 2.93446994 -4.84619379 
O 33.4598694 4.72827625 -4.60811186 
H 33.2258034 4.68727207 -5.54252052 
H 32.6543312 4.47831917 -4.13662720 
15
substructure 5-mer 268 from 7-mer
O 31.1095371 3.54558849 -3.45079875 
H 30.6000118 3.70125651 -2.65915370 
H 31.4101276 2.62366676 -3.41169810 
O 31.9596119 0.875960946 -3.63843918 
H 32.0980186 0.120436847 -3.07364941 
H 31.3483162 0.595192730 -4.34315252 
O 30.2290096 0.375815958 -5.65886116 
H 29.7691231 -0.139294788 -6.31505680 
H 30.1635132 1.30411375 -5.94394493 
O 30.2974815 3.05467987 -6.18166065 
H 31.1109810 3.25899076 -6.66355944 
H 30.4361248 3.38533926 -5.28593683 
O 34.0806007 2.05304384 -5.24780560 
H 33.4581413 1.54362535 -4.71724749 
H 34.1013031 2.93446994 -4.84619379 
15
substructure 5-mer 269 from 7-mer
O 31.1095371 3.54558849 -3.45079875 
H 30.6000118 3.70125651 -2.65915370 
H 31.4101276 2.62366676 -3.41169810 
O 31.9596119 0.875960946 -3.63843918 
H 32.0980186 0.120436847 -3.07364941 
H 31.3483162 0.595192730 -4.34315252 
O 30.2290096 0.375815958 -5.65886116 
H 29.7691231 -0.139294788 -6.31505680 
H 30.1635132 1.30411375 -5.94394493 
O 30.2974815 3.05467987 -6.18166065 
H 31.1109810 3.25899076 -6.66355944 
H 30.4361248 3.38533926 -5.28593683 
O 33.4598694 4.72827625 -4.60811186 
H 33.2258034 4.68727207 -5.54252052 
H 32.6543312 4.47831917 -4.13662720 
15
substructure 5-mer 270 from 7-mer
O 31.1095371 3.54558849 -3.45079875 
H 30.6000118 3.70125651 -2.65915370 
H 31.4101276 2.62366676 -3.41169810 
O 31.9596119 0.875960946 -3.63843918 
H 32.0980186 0.120436847 -3.07364941 
H 31.3483162 0.595192730 -4.34315252 
O 30.2290096 0.375815958 -5.65886116 
H 29.7691231 -0.139294788 -6.31505680 
H 30.1635132 1.30411375 -5.94394493 
O 34.0806007 2.05304384 -5.24780560 
H 33.4581413 1.54362535 -4.71724749 
H 34.1013031 2.93446994 -4.84619379 
O 33.4598694 4.72827625 -4.60811186 
H 33.2258034 4.68727207 -5.54252052 
H 32.6543312 4.47831917 -4.13662720 
15
substructure 5-mer 271 from 7-mer
O 31.1095371 3.54558849 -3.45079875 
H 30.6000118 3.70125651 -2.65915370 
H 31.4101276 2.62366676 -3.41169810 
O 31.9596119 0.875960946 -3.63843918 
H 32.0980186 0.120436847 -3.07364941 
H 31.3483162 0.595192730 -4.34315252 
O 30.2974815 3.05467987 -6.18166065 
H 31.1109810 3.25899076 -6.66355944 
H 30.4361248 3.38533926 -5.28593683 
O 34.0806007 2.05304384 -5.24780560 
H 33.4581413 1.54362535 -4.71724749 
H 34.1013031 2.93446994 -4.84619379 
O 33.4598694 4.72827625 -4.60811186 
H 33.2258034 4.68727207 -5.54252052 
H 32.6543312 4.47831917 -4.13662720 
15
substructure 5-mer 272 from 7-mer
O 31.1095371 3.54558849 -3.45079875 
H 30.6000118 3.70125651 -2.65915370 
H 31.4101276 2.62366676 -3.41169810 
O 30.2290096 0.375815958 -5.65886116 
H 29.7691231 -0.139294788 -6.31505680 
H 30.1635132 1.30411375 -5.94394493 
O 30.2974815 3.05467987 -6.18166065 
H 31.1109810 3.25899076 -6.66355944 
H 30.4361248 3.38533926 -5.28593683 
O 34.0806007 2.05304384 -5.24780560 
H 33.4581413 1.54362535 -4.71724749 
H 34.1013031 2.93446994 -4.84619379 
O 33.4598694 4.72827625 -4.60811186 
H 33.2258034 4.68727207 -5.54252052 
H 32.6543312 4.47831917 -4.13662720 
15
substructure 5-mer 273 from 7-mer
O 31.9596119 0.875960946 -3.63843918 
H 32.0980186 0.120436847 -3.07364941 
H 31.3483162 0.595192730 -4.34315252 
O 30.2290096 0.375815958 -5.65886116 
H 29.7691231 -0.139294788 -6.31505680 
H 30.1635132 1.30411375 -5.94394493 
O 30.2974815 3.05467987 -6.18166065 
H 31.1109810 3.25899076 -6.66355944 
H 30.4361248 3.38533926 -5.28593683 
O 34.0806007 2.05304384 -5.24780560 
H 33.4581413 1.54362535 -4.71724749 
H 34.1013031 2.93446994 -4.84619379 
O 33.4598694 4.72827625 -4.60811186 
H 33.2258034 4.68727207 -5.54252052 
H 32.6543312 4.47831917 -4.13662720 
15
substructure 5-mer 274 from 7-mer
O 29.3025684 2.72485566 -3.66454029 
H 28.3973064 2.67911482 -3.37038565 
H 29.3249149 2.35882497 -4.56806135 
O 32.0078201 3.22441936 -6.77486610 
H 32.5903664 3.01486754 -6.02940655 
H 32.5688591 3.28294063 -7.54484177 
O 30.8445415 -0.659017682 -5.28450775 
H 31.1694031 -0.172239020 -4.50863695 
H 30.7336960 -1.56212282 -4.99951124 
O 31.5880890 1.02070773 -3.21200252 
H 32.2958870 1.60454726 -3.50980616 
H 30.7951221 1.57182121 -3.18739724 
O 31.1936913 4.70465469 -4.32967091 
H 30.4745197 4.14438820 -4.00324631 
H 31.1974449 4.58188391 -5.28509283 
15
substructure 5-mer 275 from 7-mer
O 29.3025684 2.72485566 -3.66454029 
H 28.3973064 2.67911482 -3.37038565 
H 29.3249149 2.35882497 -4.56806135 
O 32.0078201 3.22441936 -6.77486610 
H 32.5903664 3.01486754 -6.02940655 
H 32.5688591 3.28294063 -7.54484177 
O 30.8445415 -0.659017682 -5.28450775 
H 31.1694031 -0.172239020 -4.50863695 
H 30.7336960 -1.56212282 -4.99951124 
O 31.5880890 1.02070773 -3.21200252 
H 32.2958870 1.60454726 -3.50980616 
H 30.7951221 1.57182121 -3.18739724 
O 29.6608276 1.70287967 -6.15318441 
H 29.9956074 0.810319841 -5.97843885 
H 30.4083080 2.19721842 -6.51105404 
15
substructure 5-mer 276 from 7-mer
O 29.3025684 2.72485566 -3.66454029 
H 28.3973064 2.67911482 -3.37038565 
H 29.3249149 2.35882497 -4.56806135 
O 32.0078201 3.22441936 -6.77486610 
H 32.5903664 3.01486754 -6.02940655 
H 32.5688591 3.28294063 -7.54484177 
O 30.8445415 -0.659017682 -5.28450775 
H 31.1694031 -0.172239020 -4.50863695 
H 30.7336960 -1.56212282 -4.99951124 
O 31.5880890 1.02070773 -3.21200252 
H 32.2958870 1.60454726 -3.50980616 
H 30.7951221 1.57182121 -3.18739724 
O 33.3582077 3.03885555 -4.27003813 
H 32.6721649 3.71457219 -4.12333393 
H 34.1607437 3.37220788 -3.87735224 
15
substructure 5-mer 277 from 7-mer
O 29.3025684 2.72485566 -3.66454029 
H 28.3973064 2.67911482 -3.37038565 
H 29.3249149 2.35882497 -4.56806135 
O 32.0078201 3.22441936 -6.77486610 
H 32.5903664 3.01486754 -6.02940655 
H 32.5688591 3.28294063 -7.54484177 
O 30.8445415 -0.659017682 -5.28450775 
H 31.1694031 -0.172239020 -4.50863695 
H 30.7336960 -1.56212282 -4.99951124 
O 31.1936913 4.70465469 -4.32967091 
H 30.4745197 4.14438820 -4.00324631 
H 31.1974449 4.58188391 -5.28509283 
O 29.6608276 1.70287967 -6.15318441 
H 29.9956074 0.810319841 -5.97843885 
H 30.4083080 2.19721842 -6.51105404 
15
substructure 5-mer 278 from 7-mer
O 29.3025684 2.72485566 -3.66454029 
H 28.3973064 2.67911482 -3.37038565 
H 29.3249149 2.35882497 -4.56806135 
O 32.0078201 3.22441936 -6.77486610 
H 32.5903664 3.01486754 -6.02940655 
H 32.5688591 3.28294063 -7.54484177 
O 30.8445415 -0.659017682 -5.28450775 
H 31.1694031 -0.172239020 -4.50863695 
H 30.7336960 -1.56212282 -4.99951124 
O 31.1936913 4.70465469 -4.32967091 
H 30.4745197 4.14438820 -4.00324631 
H 31.1974449 4.58188391 -5.28509283 
O 33.3582077 3.03885555 -4.27003813 
H 32.6721649 3.71457219 -4.12333393 
H 34.1607437 3.37220788 -3.87735224 
15
substructure 5-mer 279 from 7-mer
O 29.3025684 2.72485566 -3.66454029 
H 28.3973064 2.67911482 -3.37038565 
H 29.3249149 2.35882497 -4.56806135 
O 32.0078201 3.22441936 -6.77486610 
H 32.5903664 3.01486754 -6.02940655 
H 32.5688591 3.28294063 -7.54484177 
O 30.8445415 -0.659017682 -5.28450775 
H 31.1694031 -0.172239020 -4.50863695 
H 30.7336960 -1.56212282 -4.99951124 
O 29.6608276 1.70287967 -6.15318441 
H 29.9956074 0.810319841 -5.97843885 
H 30.4083080 2.19721842 -6.51105404 
O 33.3582077 3.03885555 -4.27003813 
H 32.6721649 3.71457219 -4.12333393 
H 34.1607437 3.37220788 -3.87735224 
15
substructure 5-mer 280 from 7-mer
O 29.3025684 2.72485566 -3.66454029 
H 28.3973064 2.67911482 -3.37038565 
H 29.3249149 2.35882497 -4.56806135 
O 32.0078201 3.22441936 -6.77486610 
H 32.5903664 3.01486754 -6.02940655 
H 32.5688591 3.28294063 -7.54484177 
O 31.5880890 1.02070773 -3.21200252 
H 32.2958870 1.60454726 -3.50980616 
H 30.7951221 1.57182121 -3.18739724 
O 31.1936913 4.70465469 -4.32967091 
H 30.4745197 4.14438820 -4.00324631 
H 31.1974449 4.58188391 -5.28509283 
O 29.6608276 1.70287967 -6.15318441 
H 29.9956074 0.810319841 -5.97843885 
H 30.4083080 2.19721842 -6.51105404 
15
substructure 5-mer 281 from 7-mer
O 29.3025684 2.72485566 -3.66454029 
H 28.3973064 2.67911482 -3.37038565 
H 29.3249149 2.35882497 -4.56806135 
O 32.0078201 3.22441936 -6.77486610 
H 32.5903664 3.01486754 -6.02940655 
H 32.5688591 3.28294063 -7.54484177 
O 31.5880890 1.02070773 -3.21200252 
H 32.2958870 1.60454726 -3.50980616 
H 30.7951221 1.57182121 -3.18739724 
O 31.1936913 4.70465469 -4.32967091 
H 30.4745197 4.14438820 -4.00324631 
H 31.1974449 4.58188391 -5.28509283 
O 33.3582077 3.03885555 -4.27003813 
H 32.6721649 3.71457219 -4.12333393 
H 34.1607437 3.37220788 -3.87735224 
15
substructure 5-mer 282 from 7-mer
O 29.3025684 2.72485566 -3.66454029 
H 28.3973064 2.67911482 -3.37038565 
H 29.3249149 2.35882497 -4.56806135 
O 32.0078201 3.22441936 -6.77486610 
H 32.5903664 3.01486754 -6.02940655 
H 32.5688591 3.28294063 -7.54484177 
O 31.5880890 1.02070773 -3.21200252 
H 32.2958870 1.60454726 -3.50980616 
H 30.7951221 1.57182121 -3.18739724 
O 29.6608276 1.70287967 -6.15318441 
H 29.9956074 0.810319841 -5.97843885 
H 30.4083080 2.19721842 -6.51105404 
O 33.3582077 3.03885555 -4.27003813 
H 32.6721649 3.71457219 -4.12333393 
H 34.1607437 3.37220788 -3.87735224 
15
substructure 5-mer 283 from 7-mer
O 29.3025684 2.72485566 -3.66454029 
H 28.3973064 2.67911482 -3.37038565 
H 29.3249149 2.35882497 -4.56806135 
O 32.0078201 3.22441936 -6.77486610 
H 32.5903664 3.01486754 -6.02940655 
H 32.5688591 3.28294063 -7.54484177 
O 31.1936913 4.70465469 -4.32967091 
H 30.4745197 4.14438820 -4.00324631 
H 31.1974449 4.58188391 -5.28509283 
O 29.6608276 1.70287967 -6.15318441 
H 29.9956074 0.810319841 -5.97843885 
H 30.4083080 2.19721842 -6.51105404 
O 33.3582077 3.03885555 -4.27003813 
H 32.6721649 3.71457219 -4.12333393 
H 34.1607437 3.37220788 -3.87735224 
15
substructure 5-mer 284 from 7-mer
O 29.3025684 2.72485566 -3.66454029 
H 28.3973064 2.67911482 -3.37038565 
H 29.3249149 2.35882497 -4.56806135 
O 30.8445415 -0.659017682 -5.28450775 
H 31.1694031 -0.172239020 -4.50863695 
H 30.7336960 -1.56212282 -4.99951124 
O 31.5880890 1.02070773 -3.21200252 
H 32.2958870 1.60454726 -3.50980616 
H 30.7951221 1.57182121 -3.18739724 
O 31.1936913 4.70465469 -4.32967091 
H 30.4745197 4.14438820 -4.00324631 
H 31.1974449 4.58188391 -5.28509283 
O 29.6608276 1.70287967 -6.15318441 
H 29.9956074 0.810319841 -5.97843885 
H 30.4083080 2.19721842 -6.51105404 
15
substructure 5-mer 285 from 7-mer
O 29.3025684 2.72485566 -3.66454029 
H 28.3973064 2.67911482 -3.37038565 
H 29.3249149 2.35882497 -4.56806135 
O 30.8445415 -0.659017682 -5.28450775 
H 31.1694031 -0.172239020 -4.50863695 
H 30.7336960 -1.56212282 -4.99951124 
O 31.5880890 1.02070773 -3.21200252 
H 32.2958870 1.60454726 -3.50980616 
H 30.7951221 1.57182121 -3.18739724 
O 31.1936913 4.70465469 -4.32967091 
H 30.4745197 4.14438820 -4.00324631 
H 31.1974449 4.58188391 -5.28509283 
O 33.3582077 3.03885555 -4.27003813 
H 32.6721649 3.71457219 -4.12333393 
H 34.1607437 3.37220788 -3.87735224 
15
substructure 5-mer 286 from 7-mer
O 29.3025684 2.72485566 -3.66454029 
H 28.3973064 2.67911482 -3.37038565 
H 29.3249149 2.35882497 -4.56806135 
O 30.8445415 -0.659017682 -5.28450775 
H 31.1694031 -0.172239020 -4.50863695 
H 30.7336960 -1.56212282 -4.99951124 
O 31.5880890 1.02070773 -3.21200252 
H 32.2958870 1.60454726 -3.50980616 
H 30.7951221 1.57182121 -3.18739724 
O 29.6608276 1.70287967 -6.15318441 
H 29.9956074 0.810319841 -5.97843885 
H 30.4083080 2.19721842 -6.51105404 
O 33.3582077 3.03885555 -4.27003813 
H 32.6721649 3.71457219 -4.12333393 
H 34.1607437 3.37220788 -3.87735224 
15
substructure 5-mer 287 from 7-mer
O 29.3025684 2.72485566 -3.66454029 
H 28.3973064 2.67911482 -3.37038565 
H 29.3249149 2.35882497 -4.56806135 
O 30.8445415 -0.659017682 -5.28450775 
H 31.1694031 -0.172239020 -4.50863695 
H 30.7336960 -1.56212282 -4.99951124 
O 31.1936913 4.70465469 -4.32967091 
H 30.4745197 4.14438820 -4.00324631 
H 31.1974449 4.58188391 -5.28509283 
O 29.6608276 1.70287967 -6.15318441 
H 29.9956074 0.810319841 -5.97843885 
H 30.4083080 2.19721842 -6.51105404 
O 33.3582077 3.03885555 -4.27003813 
H 32.6721649 3.71457219 -4.12333393 
H 34.1607437 3.37220788 -3.87735224 
15
substructure 5-mer 288 from 7-mer
O 29.3025684 2.72485566 -3.66454029 
H 28.3973064 2.67911482 -3.37038565 
H 29.3249149 2.35882497 -4.56806135 
O 31.5880890 1.02070773 -3.21200252 
H 32.2958870 1.60454726 -3.50980616 
H 30.7951221 1.57182121 -3.18739724 
O 31.1936913 4.70465469 -4.32967091 
H 30.4745197 4.14438820 -4.00324631 
H 31.1974449 4.58188391 -5.28509283 
O 29.6608276 1.70287967 -6.15318441 
H 29.9956074 0.810319841 -5.97843885 
H 30.4083080 2.19721842 -6.51105404 
O 33.3582077 3.03885555 -4.27003813 
H 32.6721649 3.71457219 -4.12333393 
H 34.1607437 3.37220788 -3.87735224 
15
substructure 5-mer 289 from 7-mer
O 32.0078201 3.22441936 -6.77486610 
H 32.5903664 3.01486754 -6.02940655 
H 32.5688591 3.28294063 -7.54484177 
O 30.8445415 -0.659017682 -5.28450775 
H 31.1694031 -0.172239020 -4.50863695 
H 30.7336960 -1.56212282 -4.99951124 
O 31.5880890 1.02070773 -3.21200252 
H 32.2958870 1.60454726 -3.50980616 
H 30.7951221 1.57182121 -3.18739724 
O 31.1936913 4.70465469 -4.32967091 
H 30.4745197 4.14438820 -4.00324631 
H 31.1974449 4.58188391 -5.28509283 
O 29.6608276 1.70287967 -6.15318441 
H 29.9956074 0.810319841 -5.97843885 
H 30.4083080 2.19721842 -6.51105404 
15
substructure 5-mer 290 from 7-mer
O 32.0078201 3.22441936 -6.77486610 
H 32.5903664 3.01486754 -6.02940655 
H 32.5688591 3.28294063 -7.54484177 
O 30.8445415 -0.659017682 -5.28450775 
H 31.1694031 -0.172239020 -4.50863695 
H 30.7336960 -1.56212282 -4.99951124 
O 31.5880890 1.02070773 -3.21200252 
H 32.2958870 1.60454726 -3.50980616 
H 30.7951221 1.57182121 -3.18739724 
O 31.1936913 4.70465469 -4.32967091 
H 30.4745197 4.14438820 -4.00324631 
H 31.1974449 4.58188391 -5.28509283 
O 33.3582077 3.03885555 -4.27003813 
H 32.6721649 3.71457219 -4.12333393 
H 34.1607437 3.37220788 -3.87735224 
15
substructure 5-mer 291 from 7-mer
O 32.0078201 3.22441936 -6.77486610 
H 32.5903664 3.01486754 -6.02940655 
H 32.5688591 3.28294063 -7.54484177 
O 30.8445415 -0.659017682 -5.28450775 
H 31.1694031 -0.172239020 -4.50863695 
H 30.7336960 -1.56212282 -4.99951124 
O 31.5880890 1.02070773 -3.21200252 
H 32.2958870 1.60454726 -3.50980616 
H 30.7951221 1.57182121 -3.18739724 
O 29.6608276 1.70287967 -6.15318441 
H 29.9956074 0.810319841 -5.97843885 
H 30.4083080 2.19721842 -6.51105404 
O 33.3582077 3.03885555 -4.27003813 
H 32.6721649 3.71457219 -4.12333393 
H 34.1607437 3.37220788 -3.87735224 
15
substructure 5-mer 292 from 7-mer
O 32.0078201 3.22441936 -6.77486610 
H 32.5903664 3.01486754 -6.02940655 
H 32.5688591 3.28294063 -7.54484177 
O 30.8445415 -0.659017682 -5.28450775 
H 31.1694031 -0.172239020 -4.50863695 
H 30.7336960 -1.56212282 -4.99951124 
O 31.1936913 4.70465469 -4.32967091 
H 30.4745197 4.14438820 -4.00324631 
H 31.1974449 4.58188391 -5.28509283 
O 29.6608276 1.70287967 -6.15318441 
H 29.9956074 0.810319841 -5.97843885 
H 30.4083080 2.19721842 -6.51105404 
O 33.3582077 3.03885555 -4.27003813 
H 32.6721649 3.71457219 -4.12333393 
H 34.1607437 3.37220788 -3.87735224 
15
substructure 5-mer 293 from 7-mer
O 32.0078201 3.22441936 -6.77486610 
H 32.5903664 3.01486754 -6.02940655 
H 32.5688591 3.28294063 -7.54484177 
O 31.5880890 1.02070773 -3.21200252 
H 32.2958870 1.60454726 -3.50980616 
H 30.7951221 1.57182121 -3.18739724 
O 31.1936913 4.70465469 -4.32967091 
H 30.4745197 4.14438820 -4.00324631 
H 31.1974449 4.58188391 -5.28509283 
O 29.6608276 1.70287967 -6.15318441 
H 29.9956074 0.810319841 -5.97843885 
H 30.4083080 2.19721842 -6.51105404 
O 33.3582077 3.03885555 -4.27003813 
H 32.6721649 3.71457219 -4.12333393 
H 34.1607437 3.37220788 -3.87735224 
15
substructure 5-mer 294 from 7-mer
O 30.8445415 -0.659017682 -5.28450775 
H 31.1694031 -0.172239020 -4.50863695 
H 30.7336960 -1.56212282 -4.99951124 
O 31.5880890 1.02070773 -3.21200252 
H 32.2958870 1.60454726 -3.50980616 
H 30.7951221 1.57182121 -3.18739724 
O 31.1936913 4.70465469 -4.32967091 
H 30.4745197 4.14438820 -4.00324631 
H 31.1974449 4.58188391 -5.28509283 
O 29.6608276 1.70287967 -6.15318441 
H 29.9956074 0.810319841 -5.97843885 
H 30.4083080 2.19721842 -6.51105404 
O 33.3582077 3.03885555 -4.27003813 
H 32.6721649 3.71457219 -4.12333393 
H 34.1607437 3.37220788 -3.87735224 
15
substructure 5-mer 295 from 7-mer
O 30.4948311 0.979090869 -3.18255687 
H 29.7769394 0.843786359 -2.56840253 
H 30.3455162 1.84549582 -3.59072924 
O 33.3375244 0.877047539 -2.92885208 
H 32.3731499 0.819763899 -2.92642188 
H 33.5923157 0.932687759 -3.85847449 
O 33.7917671 3.50254989 -2.17939019 
H 34.4832878 3.59199810 -1.52909434 
H 33.6815033 2.54774809 -2.32311821 
O 33.8056335 1.49090707 -5.71359110 
H 33.6045876 2.40917921 -5.45586872 
H 34.6032867 1.51886690 -6.23437691 
O 33.0252914 3.93746543 -4.81330061 
H 32.0631905 3.88186479 -4.80000877 
H 33.3082123 3.93771648 -3.88613057 
15
substructure 5-mer 296 from 7-mer
O 30.4948311 0.979090869 -3.18255687 
H 29.7769394 0.843786359 -2.56840253 
H 30.3455162 1.84549582 -3.59072924 
O 33.3375244 0.877047539 -2.92885208 
H 32.3731499 0.819763899 -2.92642188 
H 33.5923157 0.932687759 -3.85847449 
O 33.7917671 3.50254989 -2.17939019 
H 34.4832878 3.59199810 -1.52909434 
H 33.6815033 2.54774809 -2.32311821 
O 33.8056335 1.49090707 -5.71359110 
H 33.6045876 2.40917921 -5.45586872 
H 34.6032867 1.51886690 -6.23437691 
O 30.2226181 3.21288919 -4.91899300 
H 29.5213184 3.69222331 -5.35244751 
H 30.4644470 2.47597122 -5.50813198 
15
substructure 5-mer 297 from 7-mer
O 30.4948311 0.979090869 -3.18255687 
H 29.7769394 0.843786359 -2.56840253 
H 30.3455162 1.84549582 -3.59072924 
O 33.3375244 0.877047539 -2.92885208 
H 32.3731499 0.819763899 -2.92642188 
H 33.5923157 0.932687759 -3.85847449 
O 33.7917671 3.50254989 -2.17939019 
H 34.4832878 3.59199810 -1.52909434 
H 33.6815033 2.54774809 -2.32311821 
O 33.8056335 1.49090707 -5.71359110 
H 33.6045876 2.40917921 -5.45586872 
H 34.6032867 1.51886690 -6.23437691 
O 31.0776806 0.881051362 -6.07562637 
H 32.0399399 0.988633454 -6.08244324 
H 30.8725986 0.466690451 -5.23039389 
15
substructure 5-mer 298 from 7-mer
O 30.4948311 0.979090869 -3.18255687 
H 29.7769394 0.843786359 -2.56840253 
H 30.3455162 1.84549582 -3.59072924 
O 33.3375244 0.877047539 -2.92885208 
H 32.3731499 0.819763899 -2.92642188 
H 33.5923157 0.932687759 -3.85847449 
O 33.7917671 3.50254989 -2.17939019 
H 34.4832878 3.59199810 -1.52909434 
H 33.6815033 2.54774809 -2.32311821 
O 33.0252914 3.93746543 -4.81330061 
H 32.0631905 3.88186479 -4.80000877 
H 33.3082123 3.93771648 -3.88613057 
O 30.2226181 3.21288919 -4.91899300 
H 29.5213184 3.69222331 -5.35244751 
H 30.4644470 2.47597122 -5.50813198 
15
substructure 5-mer 299 from 7-mer
O 30.4948311 0.979090869 -3.18255687 
H 29.7769394 0.843786359 -2.56840253 
H 30.3455162 1.84549582 -3.59072924 
O 33.3375244 0.877047539 -2.92885208 
H 32.3731499 0.819763899 -2.92642188 
H 33.5923157 0.932687759 -3.85847449 
O 33.7917671 3.50254989 -2.17939019 
H 34.4832878 3.59199810 -1.52909434 
H 33.6815033 2.54774809 -2.32311821 
O 33.0252914 3.93746543 -4.81330061 
H 32.0631905 3.88186479 -4.80000877 
H 33.3082123 3.93771648 -3.88613057 
O 31.0776806 0.881051362 -6.07562637 
H 32.0399399 0.988633454 -6.08244324 
H 30.8725986 0.466690451 -5.23039389 
15
substructure 5-mer 300 from 7-mer
O 30.4948311 0.979090869 -3.18255687 
H 29.7769394 0.843786359 -2.56840253 
H 30.3455162 1.84549582 -3.59072924 
O 33.3375244 0.877047539 -2.92885208 
H 32.3731499 0.819763899 -2.92642188 
H 33.5923157 0.932687759 -3.85847449 
O 33.7917671 3.50254989 -2.17939019 
H 34.4832878 3.59199810 -1.52909434 
H 33.6815033 2.54774809 -2.32311821 
O 30.2226181 3.21288919 -4.91899300 
H 29.5213184 3.69222331 -5.35244751 
H 30.4644470 2.47597122 -5.50813198 
O 31.0776806 0.881051362 -6.07562637 
H 32.0399399 0.988633454 -6.08244324 
H 30.8725986 0.466690451 -5.23039389 
15
substructure 5-mer 301 from 7-mer
O 30.4948311 0.979090869 -3.18255687 
H 29.7769394 0.843786359 -2.56840253 
H 30.3455162 1.84549582 -3.59072924 
O 33.3375244 0.877047539 -2.92885208 
H 32.3731499 0.819763899 -2.92642188 
H 33.5923157 0.932687759 -3.85847449 
O 33.8056335 1.49090707 -5.71359110 
H 33.6045876 2.40917921 -5.45586872 
H 34.6032867 1.51886690 -6.23437691 
O 33.0252914 3.93746543 -4.81330061 
H 32.0631905 3.88186479 -4.80000877 
H 33.3082123 3.93771648 -3.88613057 
O 30.2226181 3.21288919 -4.91899300 
H 29.5213184 3.69222331 -5.35244751 
H 30.4644470 2.47597122 -5.50813198 
15
substructure 5-mer 302 from 7-mer
O 30.4948311 0.979090869 -3.18255687 
H 29.7769394 0.843786359 -2.56840253 
H 30.3455162 1.84549582 -3.59072924 
O 33.3375244 0.877047539 -2.92885208 
H 32.3731499 0.819763899 -2.92642188 
H 33.5923157 0.932687759 -3.85847449 
O 33.8056335 1.49090707 -5.71359110 
H 33.6045876 2.40917921 -5.45586872 
H 34.6032867 1.51886690 -6.23437691 
O 33.0252914 3.93746543 -4.81330061 
H 32.0631905 3.88186479 -4.80000877 
H 33.3082123 3.93771648 -3.88613057 
O 31.0776806 0.881051362 -6.07562637 
H 32.0399399 0.988633454 -6.08244324 
H 30.8725986 0.466690451 -5.23039389 
15
substructure 5-mer 303 from 7-mer
O 30.4948311 0.979090869 -3.18255687 
H 29.7769394 0.843786359 -2.56840253 
H 30.3455162 1.84549582 -3.59072924 
O 33.3375244 0.877047539 -2.92885208 
H 32.3731499 0.819763899 -2.92642188 
H 33.5923157 0.932687759 -3.85847449 
O 33.8056335 1.49090707 -5.71359110 
H 33.6045876 2.40917921 -5.45586872 
H 34.6032867 1.51886690 -6.23437691 
O 30.2226181 3.21288919 -4.91899300 
H 29.5213184 3.69222331 -5.35244751 
H 30.4644470 2.47597122 -5.50813198 
O 31.0776806 0.881051362 -6.07562637 
H 32.0399399 0.988633454 -6.08244324 
H 30.8725986 0.466690451 -5.23039389 
15
substructure 5-mer 304 from 7-mer
O 30.4948311 0.979090869 -3.18255687 
H 29.7769394 0.843786359 -2.56840253 
H 30.3455162 1.84549582 -3.59072924 
O 33.3375244 0.877047539 -2.92885208 
H 32.3731499 0.819763899 -2.92642188 
H 33.5923157 0.932687759 -3.85847449 
O 33.0252914 3.93746543 -4.81330061 
H 32.0631905 3.88186479 -4.80000877 
H 33.3082123 3.93771648 -3.88613057 
O 30.2226181 3.21288919 -4.91899300 
H 29.5213184 3.69222331 -5.35244751 
H 30.4644470 2.47597122 -5.50813198 
O 31.0776806 0.881051362 -6.07562637 
H 32.0399399 0.988633454 -6.08244324 
H 30.8725986 0.466690451 -5.23039389 
15
substructure 5-mer 305 from 7-mer
O 30.4948311 0.979090869 -3.18255687 
H 29.7769394 0.843786359 -2.56840253 
H 30.3455162 1.84549582 -3.59072924 
O 33.7917671 3.50254989 -2.17939019 
H 34.4832878 3.59199810 -1.52909434 
H 33.6815033 2.54774809 -2.32311821 
O 33.8056335 1.49090707 -5.71359110 
H 33.6045876 2.40917921 -5.45586872 
H 34.6032867 1.51886690 -6.23437691 
O 33.0252914 3.93746543 -4.81330061 
H 32.0631905 3.88186479 -4.80000877 
H 33.3082123 3.93771648 -3.88613057 
O 30.2226181 3.21288919 -4.91899300 
H 29.5213184 3.69222331 -5.35244751 
H 30.4644470 2.47597122 -5.50813198 
15
substructure 5-mer 306 from 7-mer
O 30.4948311 0.979090869 -3.18255687 
H 29.7769394 0.843786359 -2.56840253 
H 30.3455162 1.84549582 -3.59072924 
O 33.7917671 3.50254989 -2.17939019 
H 34.4832878 3.59199810 -1.52909434 
H 33.6815033 2.54774809 -2.32311821 
O 33.8056335 1.49090707 -5.71359110 
H 33.6045876 2.40917921 -5.45586872 
H 34.6032867 1.51886690 -6.23437691 
O 33.0252914 3.93746543 -4.81330061 
H 32.0631905 3.88186479 -4.80000877 
H 33.3082123 3.93771648 -3.88613057 
O 31.0776806 0.881051362 -6.07562637 
H 32.0399399 0.988633454 -6.08244324 
H 30.8725986 0.466690451 -5.23039389 
15
substructure 5-mer 307 from 7-mer
O 30.4948311 0.979090869 -3.18255687 
H 29.7769394 0.843786359 -2.56840253 
H 30.3455162 1.84549582 -3.59072924 
O 33.7917671 3.50254989 -2.17939019 
H 34.4832878 3.59199810 -1.52909434 
H 33.6815033 2.54774809 -2.32311821 
O 33.8056335 1.49090707 -5.71359110 
H 33.6045876 2.40917921 -5.45586872 
H 34.6032867 1.51886690 -6.23437691 
O 30.2226181 3.21288919 -4.91899300 
H 29.5213184 3.69222331 -5.35244751 
H 30.4644470 2.47597122 -5.50813198 
O 31.0776806 0.881051362 -6.07562637 
H 32.0399399 0.988633454 -6.08244324 
H 30.8725986 0.466690451 -5.23039389 
15
substructure 5-mer 308 from 7-mer
O 30.4948311 0.979090869 -3.18255687 
H 29.7769394 0.843786359 -2.56840253 
H 30.3455162 1.84549582 -3.59072924 
O 33.7917671 3.50254989 -2.17939019 
H 34.4832878 3.59199810 -1.52909434 
H 33.6815033 2.54774809 -2.32311821 
O 33.0252914 3.93746543 -4.81330061 
H 32.0631905 3.88186479 -4.80000877 
H 33.3082123 3.93771648 -3.88613057 
O 30.2226181 3.21288919 -4.91899300 
H 29.5213184 3.69222331 -5.35244751 
H 30.4644470 2.47597122 -5.50813198 
O 31.0776806 0.881051362 -6.07562637 
H 32.0399399 0.988633454 -6.08244324 
H 30.8725986 0.466690451 -5.23039389 
15
substructure 5-mer 309 from 7-mer
O 30.4948311 0.979090869 -3.18255687 
H 29.7769394 0.843786359 -2.56840253 
H 30.3455162 1.84549582 -3.59072924 
O 33.8056335 1.49090707 -5.71359110 
H 33.6045876 2.40917921 -5.45586872 
H 34.6032867 1.51886690 -6.23437691 
O 33.0252914 3.93746543 -4.81330061 
H 32.0631905 3.88186479 -4.80000877 
H 33.3082123 3.93771648 -3.88613057 
O 30.2226181 3.21288919 -4.91899300 
H 29.5213184 3.69222331 -5.35244751 
H 30.4644470 2.47597122 -5.50813198 
O 31.0776806 0.881051362 -6.07562637 
H 32.0399399 0.988633454 -6.08244324 
H 30.8725986 0.466690451 -5.23039389 
15
substructure 5-mer 310 from 7-mer
O 33.3375244 0.877047539 -2.92885208 
H 32.3731499 0.819763899 -2.92642188 
H 33.5923157 0.932687759 -3.85847449 
O 33.7917671 3.50254989 -2.17939019 
H 34.4832878 3.59199810 -1.52909434 
H 33.6815033 2.54774809 -2.32311821 
O 33.8056335 1.49090707 -5.71359110 
H 33.6045876 2.40917921 -5.45586872 
H 34.6032867 1.51886690 -6.23437691 
O 33.0252914 3.93746543 -4.81330061 
H 32.0631905 3.88186479 -4.80000877 
H 33.3082123 3.93771648 -3.88613057 
O 30.2226181 3.21288919 -4.91899300 
H 29.5213184 3.69222331 -5.35244751 
H 30.4644470 2.47597122 -5.50813198 
15
substructure 5-mer 311 from 7-mer
O 33.3375244 0.877047539 -2.92885208 
H 32.3731499 0.819763899 -2.92642188 
H 33.5923157 0.932687759 -3.85847449 
O 33.7917671 3.50254989 -2.17939019 
H 34.4832878 3.59199810 -1.52909434 
H 33.6815033 2.54774809 -2.32311821 
O 33.8056335 1.49090707 -5.71359110 
H 33.6045876 2.40917921 -5.45586872 
H 34.6032867 1.51886690 -6.23437691 
O 33.0252914 3.93746543 -4.81330061 
H 32.0631905 3.88186479 -4.80000877 
H 33.3082123 3.93771648 -3.88613057 
O 31.0776806 0.881051362 -6.07562637 
H 32.0399399 0.988633454 -6.08244324 
H 30.8725986 0.466690451 -5.23039389 
15
substructure 5-mer 312 from 7-mer
O 33.3375244 0.877047539 -2.92885208 
H 32.3731499 0.819763899 -2.92642188 
H 33.5923157 0.932687759 -3.85847449 
O 33.7917671 3.50254989 -2.17939019 
H 34.4832878 3.59199810 -1.52909434 
H 33.6815033 2.54774809 -2.32311821 
O 33.8056335 1.49090707 -5.71359110 
H 33.6045876 2.40917921 -5.45586872 
H 34.6032867 1.51886690 -6.23437691 
O 30.2226181 3.21288919 -4.91899300 
H 29.5213184 3.69222331 -5.35244751 
H 30.4644470 2.47597122 -5.50813198 
O 31.0776806 0.881051362 -6.07562637 
H 32.0399399 0.988633454 -6.08244324 
H 30.8725986 0.466690451 -5.23039389 
15
substructure 5-mer 313 from 7-mer
O 33.3375244 0.877047539 -2.92885208 
H 32.3731499 0.819763899 -2.92642188 
H 33.5923157 0.932687759 -3.85847449 
O 33.7917671 3.50254989 -2.17939019 
H 34.4832878 3.59199810 -1.52909434 
H 33.6815033 2.54774809 -2.32311821 
O 33.0252914 3.93746543 -4.81330061 
H 32.0631905 3.88186479 -4.80000877 
H 33.3082123 3.93771648 -3.88613057 
O 30.2226181 3.21288919 -4.91899300 
H 29.5213184 3.69222331 -5.35244751 
H 30.4644470 2.47597122 -5.50813198 
O 31.0776806 0.881051362 -6.07562637 
H 32.0399399 0.988633454 -6.08244324 
H 30.8725986 0.466690451 -5.23039389 
15
substructure 5-mer 314 from 7-mer
O 33.3375244 0.877047539 -2.92885208 
H 32.3731499 0.819763899 -2.92642188 
H 33.5923157 0.932687759 -3.85847449 
O 33.8056335 1.49090707 -5.71359110 
H 33.6045876 2.40917921 -5.45586872 
H 34.6032867 1.51886690 -6.23437691 
O 33.0252914 3.93746543 -4.81330061 
H 32.0631905 3.88186479 -4.80000877 
H 33.3082123 3.93771648 -3.88613057 
O 30.2226181 3.21288919 -4.91899300 
H 29.5213184 3.69222331 -5.35244751 
H 30.4644470 2.47597122 -5.50813198 
O 31.0776806 0.881051362 -6.07562637 
H 32.0399399 0.988633454 -6.08244324 
H 30.8725986 0.466690451 -5.23039389 
15
substructure 5-mer 315 from 7-mer
O 33.7917671 3.50254989 -2.17939019 
H 34.4832878 3.59199810 -1.52909434 
H 33.6815033 2.54774809 -2.32311821 
O 33.8056335 1.49090707 -5.71359110 
H 33.6045876 2.40917921 -5.45586872 
H 34.6032867 1.51886690 -6.23437691 
O 33.0252914 3.93746543 -4.81330061 
H 32.0631905 3.88186479 -4.80000877 
H 33.3082123 3.93771648 -3.88613057 
O 30.2226181 3.21288919 -4.91899300 
H 29.5213184 3.69222331 -5.35244751 
H 30.4644470 2.47597122 -5.50813198 
O 31.0776806 0.881051362 -6.07562637 
H 32.0399399 0.988633454 -6.08244324 
H 30.8725986 0.466690451 -5.23039389 
15
substructure 5-mer 316 from 7-mer
O 33.4488106 1.16343784 -5.13355303 
H 33.9977570 0.719798744 -4.47731495 
H 32.5440750 1.10586929 -4.79105520 
O 33.6165962 1.86045158 -1.10907698 
H 33.1482964 2.57299137 -1.56588721 
H 32.9589729 1.17054904 -0.965352952 
O 32.2051315 -0.622153223 -1.77245009 
H 33.0773926 -0.608907819 -2.19641829 
H 32.0389023 -1.52906609 -1.52671981 
O 32.1259651 3.71077347 -2.63608432 
H 32.6663437 3.86221075 -3.43153262 
H 31.6818638 4.53256226 -2.44542146 
O 31.0513496 1.21180952 -3.67618108 
H 31.2596474 2.07020664 -3.28674293 
H 31.2719383 0.557240665 -3.00202918 
15
substructure 5-mer 317 from 7-mer
O 33.4488106 1.16343784 -5.13355303 
H 33.9977570 0.719798744 -4.47731495 
H 32.5440750 1.10586929 -4.79105520 
O 33.6165962 1.86045158 -1.10907698 
H 33.1482964 2.57299137 -1.56588721 
H 32.9589729 1.17054904 -0.965352952 
O 32.2051315 -0.622153223 -1.77245009 
H 33.0773926 -0.608907819 -2.19641829 
H 32.0389023 -1.52906609 -1.52671981 
O 32.1259651 3.71077347 -2.63608432 
H 32.6663437 3.86221075 -3.43153262 
H 31.6818638 4.53256226 -2.44542146 
O 33.6338501 3.87718964 -4.89637089 
H 33.6383629 2.92156267 -5.08077478 
H 33.8462448 4.30674124 -5.71997404 
15
substructure 5-mer 318 from 7-mer
O 33.4488106 1.16343784 -5.13355303 
H 33.9977570 0.719798744 -4.47731495 
H 32.5440750 1.10586929 -4.79105520 
O 33.6165962 1.86045158 -1.10907698 
H 33.1482964 2.57299137 -1.56588721 
H 32.9589729 1.17054904 -0.965352952 
O 32.2051315 -0.622153223 -1.77245009 
H 33.0773926 -0.608907819 -2.19641829 
H 32.0389023 -1.52906609 -1.52671981 
O 32.1259651 3.71077347 -2.63608432 
H 32.6663437 3.86221075 -3.43153262 
H 31.6818638 4.53256226 -2.44542146 
O 34.7564697 4.66183387E-02 -2.80963326 
H 35.6749077 -0.153184533 -2.64971423 
H 34.5278015 0.794858098 -2.22935963 
15
substructure 5-mer 319 from 7-mer
O 33.4488106 1.16343784 -5.13355303 
H 33.9977570 0.719798744 -4.47731495 
H 32.5440750 1.10586929 -4.79105520 
O 33.6165962 1.86045158 -1.10907698 
H 33.1482964 2.57299137 -1.56588721 
H 32.9589729 1.17054904 -0.965352952 
O 32.2051315 -0.622153223 -1.77245009 
H 33.0773926 -0.608907819 -2.19641829 
H 32.0389023 -1.52906609 -1.52671981 
O 31.0513496 1.21180952 -3.67618108 
H 31.2596474 2.07020664 -3.28674293 
H 31.2719383 0.557240665 -3.00202918 
O 33.6338501 3.87718964 -4.89637089 
H 33.6383629 2.92156267 -5.08077478 
H 33.8462448 4.30674124 -5.71997404 
15
substructure 5-mer 320 from 7-mer
O 33.4488106 1.16343784 -5.13355303 
H 33.9977570 0.719798744 -4.47731495 
H 32.5440750 1.10586929 -4.79105520 
O 33.6165962 1.86045158 -1.10907698 
H 33.1482964 2.57299137 -1.56588721 
H 32.9589729 1.17054904 -0.965352952 
O 32.2051315 -0.622153223 -1.77245009 
H 33.0773926 -0.608907819 -2.19641829 
H 32.0389023 -1.52906609 -1.52671981 
O 31.0513496 1.21180952 -3.67618108 
H 31.2596474 2.07020664 -3.28674293 
H 31.2719383 0.557240665 -3.00202918 
O 34.7564697 4.66183387E-02 -2.80963326 
H 35.6749077 -0.153184533 -2.64971423 
H 34.5278015 0.794858098 -2.22935963 
15
substructure 5-mer 321 from 7-mer
O 33.4488106 1.16343784 -5.13355303 
H 33.9977570 0.719798744 -4.47731495 
H 32.5440750 1.10586929 -4.79105520 
O 33.6165962 1.86045158 -1.10907698 
H 33.1482964 2.57299137 -1.56588721 
H 32.9589729 1.17054904 -0.965352952 
O 32.2051315 -0.622153223 -1.77245009 
H 33.0773926 -0.608907819 -2.19641829 
H 32.0389023 -1.52906609 -1.52671981 
O 33.6338501 3.87718964 -4.89637089 
H 33.6383629 2.92156267 -5.08077478 
H 33.8462448 4.30674124 -5.71997404 
O 34.7564697 4.66183387E-02 -2.80963326 
H 35.6749077 -0.153184533 -2.64971423 
H 34.5278015 0.794858098 -2.22935963 
15
substructure 5-mer 322 from 7-mer
O 33.4488106 1.16343784 -5.13355303 
H 33.9977570 0.719798744 -4.47731495 
H 32.5440750 1.10586929 -4.79105520 
O 33.6165962 1.86045158 -1.10907698 
H 33.1482964 2.57299137 -1.56588721 
H 32.9589729 1.17054904 -0.965352952 
O 32.1259651 3.71077347 -2.63608432 
H 32.6663437 3.86221075 -3.43153262 
H 31.6818638 4.53256226 -2.44542146 
O 31.0513496 1.21180952 -3.67618108 
H 31.2596474 2.07020664 -3.28674293 
H 31.2719383 0.557240665 -3.00202918 
O 33.6338501 3.87718964 -4.89637089 
H 33.6383629 2.92156267 -5.08077478 
H 33.8462448 4.30674124 -5.71997404 
15
substructure 5-mer 323 from 7-mer
O 33.4488106 1.16343784 -5.13355303 
H 33.9977570 0.719798744 -4.47731495 
H 32.5440750 1.10586929 -4.79105520 
O 33.6165962 1.86045158 -1.10907698 
H 33.1482964 2.57299137 -1.56588721 
H 32.9589729 1.17054904 -0.965352952 
O 32.1259651 3.71077347 -2.63608432 
H 32.6663437 3.86221075 -3.43153262 
H 31.6818638 4.53256226 -2.44542146 
O 31.0513496 1.21180952 -3.67618108 
H 31.2596474 2.07020664 -3.28674293 
H 31.2719383 0.557240665 -3.00202918 
O 34.7564697 4.66183387E-02 -2.80963326 
H 35.6749077 -0.153184533 -2.64971423 
H 34.5278015 0.794858098 -2.22935963 
15
substructure 5-mer 324 from 7-mer
O 33.4488106 1.16343784 -5.13355303 
H 33.9977570 0.719798744 -4.47731495 
H 32.5440750 1.10586929 -4.79105520 
O 33.6165962 1.86045158 -1.10907698 
H 33.1482964 2.57299137 -1.56588721 
H 32.9589729 1.17054904 -0.965352952 
O 32.1259651 3.71077347 -2.63608432 
H 32.6663437 3.86221075 -3.43153262 
H 31.6818638 4.53256226 -2.44542146 
O 33.6338501 3.87718964 -4.89637089 
H 33.6383629 2.92156267 -5.08077478 
H 33.8462448 4.30674124 -5.71997404 
O 34.7564697 4.66183387E-02 -2.80963326 
H 35.6749077 -0.153184533 -2.64971423 
H 34.5278015 0.794858098 -2.22935963 
15
substructure 5-mer 325 from 7-mer
O 33.4488106 1.16343784 -5.13355303 
H 33.9977570 0.719798744 -4.47731495 
H 32.5440750 1.10586929 -4.79105520 
O 33.6165962 1.86045158 -1.10907698 
H 33.1482964 2.57299137 -1.56588721 
H 32.9589729 1.17054904 -0.965352952 
O 31.0513496 1.21180952 -3.67618108 
H 31.2596474 2.07020664 -3.28674293 
H 31.2719383 0.557240665 -3.00202918 
O 33.6338501 3.87718964 -4.89637089 
H 33.6383629 2.92156267 -5.08077478 
H 33.8462448 4.30674124 -5.71997404 
O 34.7564697 4.66183387E-02 -2.80963326 
H 35.6749077 -0.153184533 -2.64971423 
H 34.5278015 0.794858098 -2.22935963 
15
substructure 5-mer 326 from 7-mer
O 33.4488106 1.16343784 -5.13355303 
H 33.9977570 0.719798744 -4.47731495 
H 32.5440750 1.10586929 -4.79105520 
O 32.2051315 -0.622153223 -1.77245009 
H 33.0773926 -0.608907819 -2.19641829 
H 32.0389023 -1.52906609 -1.52671981 
O 32.1259651 3.71077347 -2.63608432 
H 32.6663437 3.86221075 -3.43153262 
H 31.6818638 4.53256226 -2.44542146 
O 31.0513496 1.21180952 -3.67618108 
H 31.2596474 2.07020664 -3.28674293 
H 31.2719383 0.557240665 -3.00202918 
O 33.6338501 3.87718964 -4.89637089 
H 33.6383629 2.92156267 -5.08077478 
H 33.8462448 4.30674124 -5.71997404 
15
substructure 5-mer 327 from 7-mer
O 33.4488106 1.16343784 -5.13355303 
H 33.9977570 0.719798744 -4.47731495 
H 32.5440750 1.10586929 -4.79105520 
O 32.2051315 -0.622153223 -1.77245009 
H 33.0773926 -0.608907819 -2.19641829 
H 32.0389023 -1.52906609 -1.52671981 
O 32.1259651 3.71077347 -2.63608432 
H 32.6663437 3.86221075 -3.43153262 
H 31.6818638 4.53256226 -2.44542146 
O 31.0513496 1.21180952 -3.67618108 
H 31.2596474 2.07020664 -3.28674293 
H 31.2719383 0.557240665 -3.00202918 
O 34.7564697 4.66183387E-02 -2.80963326 
H 35.6749077 -0.153184533 -2.64971423 
H 34.5278015 0.794858098 -2.22935963 
15
substructure 5-mer 328 from 7-mer
O 33.4488106 1.16343784 -5.13355303 
H 33.9977570 0.719798744 -4.47731495 
H 32.5440750 1.10586929 -4.79105520 
O 32.2051315 -0.622153223 -1.77245009 
H 33.0773926 -0.608907819 -2.19641829 
H 32.0389023 -1.52906609 -1.52671981 
O 32.1259651 3.71077347 -2.63608432 
H 32.6663437 3.86221075 -3.43153262 
H 31.6818638 4.53256226 -2.44542146 
O 33.6338501 3.87718964 -4.89637089 
H 33.6383629 2.92156267 -5.08077478 
H 33.8462448 4.30674124 -5.71997404 
O 34.7564697 4.66183387E-02 -2.80963326 
H 35.6749077 -0.153184533 -2.64971423 
H 34.5278015 0.794858098 -2.22935963 
15
substructure 5-mer 329 from 7-mer
O 33.4488106 1.16343784 -5.13355303 
H 33.9977570 0.719798744 -4.47731495 
H 32.5440750 1.10586929 -4.79105520 
O 32.2051315 -0.622153223 -1.77245009 
H 33.0773926 -0.608907819 -2.19641829 
H 32.0389023 -1.52906609 -1.52671981 
O 31.0513496 1.21180952 -3.67618108 
H 31.2596474 2.07020664 -3.28674293 
H 31.2719383 0.557240665 -3.00202918 
O 33.6338501 3.87718964 -4.89637089 
H 33.6383629 2.92156267 -5.08077478 
H 33.8462448 4.30674124 -5.71997404 
O 34.7564697 4.66183387E-02 -2.80963326 
H 35.6749077 -0.153184533 -2.64971423 
H 34.5278015 0.794858098 -2.22935963 
15
substructure 5-mer 330 from 7-mer
O 33.4488106 1.16343784 -5.13355303 
H 33.9977570 0.719798744 -4.47731495 
H 32.5440750 1.10586929 -4.79105520 
O 32.1259651 3.71077347 -2.63608432 
H 32.6663437 3.86221075 -3.43153262 
H 31.6818638 4.53256226 -2.44542146 
O 31.0513496 1.21180952 -3.67618108 
H 31.2596474 2.07020664 -3.28674293 
H 31.2719383 0.557240665 -3.00202918 
O 33.6338501 3.87718964 -4.89637089 
H 33.6383629 2.92156267 -5.08077478 
H 33.8462448 4.30674124 -5.71997404 
O 34.7564697 4.66183387E-02 -2.80963326 
H 35.6749077 -0.153184533 -2.64971423 
H 34.5278015 0.794858098 -2.22935963 
15
substructure 5-mer 331 from 7-mer
O 33.6165962 1.86045158 -1.10907698 
H 33.1482964 2.57299137 -1.56588721 
H 32.9589729 1.17054904 -0.965352952 
O 32.2051315 -0.622153223 -1.77245009 
H 33.0773926 -0.608907819 -2.19641829 
H 32.0389023 -1.52906609 -1.52671981 
O 32.1259651 3.71077347 -2.63608432 
H 32.6663437 3.86221075 -3.43153262 
H 31.6818638 4.53256226 -2.44542146 
O 31.0513496 1.21180952 -3.67618108 
H 31.2596474 2.07020664 -3.28674293 
H 31.2719383 0.557240665 -3.00202918 
O 33.6338501 3.87718964 -4.89637089 
H 33.6383629 2.92156267 -5.08077478 
H 33.8462448 4.30674124 -5.71997404 
15
substructure 5-mer 332 from 7-mer
O 33.6165962 1.86045158 -1.10907698 
H 33.1482964 2.57299137 -1.56588721 
H 32.9589729 1.17054904 -0.965352952 
O 32.2051315 -0.622153223 -1.77245009 
H 33.0773926 -0.608907819 -2.19641829 
H 32.0389023 -1.52906609 -1.52671981 
O 32.1259651 3.71077347 -2.63608432 
H 32.6663437 3.86221075 -3.43153262 
H 31.6818638 4.53256226 -2.44542146 
O 31.0513496 1.21180952 -3.67618108 
H 31.2596474 2.07020664 -3.28674293 
H 31.2719383 0.557240665 -3.00202918 
O 34.7564697 4.66183387E-02 -2.80963326 
H 35.6749077 -0.153184533 -2.64971423 
H 34.5278015 0.794858098 -2.22935963 
15
substructure 5-mer 333 from 7-mer
O 33.6165962 1.86045158 -1.10907698 
H 33.1482964 2.57299137 -1.56588721 
H 32.9589729 1.17054904 -0.965352952 
O 32.2051315 -0.622153223 -1.77245009 
H 33.0773926 -0.608907819 -2.19641829 
H 32.0389023 -1.52906609 -1.52671981 
O 32.1259651 3.71077347 -2.63608432 
H 32.6663437 3.86221075 -3.43153262 
H 31.6818638 4.53256226 -2.44542146 
O 33.6338501 3.87718964 -4.89637089 
H 33.6383629 2.92156267 -5.08077478 
H 33.8462448 4.30674124 -5.71997404 
O 34.7564697 4.66183387E-02 -2.80963326 
H 35.6749077 -0.153184533 -2.64971423 
H 34.5278015 0.794858098 -2.22935963 
15
substructure 5-mer 334 from 7-mer
O 33.6165962 1.86045158 -1.10907698 
H 33.1482964 2.57299137 -1.56588721 
H 32.9589729 1.17054904 -0.965352952 
O 32.2051315 -0.622153223 -1.77245009 
H 33.0773926 -0.608907819 -2.19641829 
H 32.0389023 -1.52906609 -1.52671981 
O 31.0513496 1.21180952 -3.67618108 
H 31.2596474 2.07020664 -3.28674293 
H 31.2719383 0.557240665 -3.00202918 
O 33.6338501 3.87718964 -4.89637089 
H 33.6383629 2.92156267 -5.08077478 
H 33.8462448 4.30674124 -5.71997404 
O 34.7564697 4.66183387E-02 -2.80963326 
H 35.6749077 -0.153184533 -2.64971423 
H 34.5278015 0.794858098 -2.22935963 
15
substructure 5-mer 335 from 7-mer
O 33.6165962 1.86045158 -1.10907698 
H 33.1482964 2.57299137 -1.56588721 
H 32.9589729 1.17054904 -0.965352952 
O 32.1259651 3.71077347 -2.63608432 
H 32.6663437 3.86221075 -3.43153262 
H 31.6818638 4.53256226 -2.44542146 
O 31.0513496 1.21180952 -3.67618108 
H 31.2596474 2.07020664 -3.28674293 
H 31.2719383 0.557240665 -3.00202918 
O 33.6338501 3.87718964 -4.89637089 
H 33.6383629 2.92156267 -5.08077478 
H 33.8462448 4.30674124 -5.71997404 
O 34.7564697 4.66183387E-02 -2.80963326 
H 35.6749077 -0.153184533 -2.64971423 
H 34.5278015 0.794858098 -2.22935963 
15
substructure 5-mer 336 from 7-mer
O 32.2051315 -0.622153223 -1.77245009 
H 33.0773926 -0.608907819 -2.19641829 
H 32.0389023 -1.52906609 -1.52671981 
O 32.1259651 3.71077347 -2.63608432 
H 32.6663437 3.86221075 -3.43153262 
H 31.6818638 4.53256226 -2.44542146 
O 31.0513496 1.21180952 -3.67618108 
H 31.2596474 2.07020664 -3.28674293 
H 31.2719383 0.557240665 -3.00202918 
O 33.6338501 3.87718964 -4.89637089 
H 33.6383629 2.92156267 -5.08077478 
H 33.8462448 4.30674124 -5.71997404 
O 34.7564697 4.66183387E-02 -2.80963326 
H 35.6749077 -0.153184533 -2.64971423 
H 34.5278015 0.794858098 -2.22935963 
15
substructure 5-mer 337 from 7-mer
O 31.8046837 3.66787028 -2.62627053 
H 31.1838169 3.18029618 -2.08742571 
H 31.3863983 3.74858546 -3.49726200 
O 33.6058464 -3.56335789E-02 -2.58667040 
H 33.9292107 0.865222752 -2.73639894 
H 34.3826294 -0.566518426 -2.42324042 
O 34.2928581 2.65482426 -3.14497066 
H 33.4409714 3.05798554 -2.90253997 
H 34.9694633 3.28292847 -2.90594459 
O 31.8962173 -3.83262485E-02 -4.83830643 
H 32.3892784 0.634782612 -5.32842875 
H 32.4031677 -0.185341746 -4.02991819 
O 33.1856308 2.27422261 -5.81384754 
H 32.3989410 2.82646108 -5.72843456 
H 33.6937599 2.42555022 -5.00760078 
15
substructure 5-mer 338 from 7-mer
O 31.8046837 3.66787028 -2.62627053 
H 31.1838169 3.18029618 -2.08742571 
H 31.3863983 3.74858546 -3.49726200 
O 33.6058464 -3.56335789E-02 -2.58667040 
H 33.9292107 0.865222752 -2.73639894 
H 34.3826294 -0.566518426 -2.42324042 
O 34.2928581 2.65482426 -3.14497066 
H 33.4409714 3.05798554 -2.90253997 
H 34.9694633 3.28292847 -2.90594459 
O 31.8962173 -3.83262485E-02 -4.83830643 
H 32.3892784 0.634782612 -5.32842875 
H 32.4031677 -0.185341746 -4.02991819 
O 30.6815910 3.63592601 -5.18301725 
H 30.1740513 4.19756079 -5.76215315 
H 30.1868439 2.80138326 -5.09095764 
15
substructure 5-mer 339 from 7-mer
O 31.8046837 3.66787028 -2.62627053 
H 31.1838169 3.18029618 -2.08742571 
H 31.3863983 3.74858546 -3.49726200 
O 33.6058464 -3.56335789E-02 -2.58667040 
H 33.9292107 0.865222752 -2.73639894 
H 34.3826294 -0.566518426 -2.42324042 
O 34.2928581 2.65482426 -3.14497066 
H 33.4409714 3.05798554 -2.90253997 
H 34.9694633 3.28292847 -2.90594459 
O 31.8962173 -3.83262485E-02 -4.83830643 
H 32.3892784 0.634782612 -5.32842875 
H 32.4031677 -0.185341746 -4.02991819 
O 29.5042686 1.22618675 -4.81801510 
H 30.3162308 0.687491059 -4.79838085 
H 28.7890968 0.621148705 -4.99086237 
15
substructure 5-mer 340 from 7-mer
O 31.8046837 3.66787028 -2.62627053 
H 31.1838169 3.18029618 -2.08742571 
H 31.3863983 3.74858546 -3.49726200 
O 33.6058464 -3.56335789E-02 -2.58667040 
H 33.9292107 0.865222752 -2.73639894 
H 34.3826294 -0.566518426 -2.42324042 
O 34.2928581 2.65482426 -3.14497066 
H 33.4409714 3.05798554 -2.90253997 
H 34.9694633 3.28292847 -2.90594459 
O 33.1856308 2.27422261 -5.81384754 
H 32.3989410 2.82646108 -5.72843456 
H 33.6937599 2.42555022 -5.00760078 
O 30.6815910 3.63592601 -5.18301725 
H 30.1740513 4.19756079 -5.76215315 
H 30.1868439 2.80138326 -5.09095764 
15
substructure 5-mer 341 from 7-mer
O 31.8046837 3.66787028 -2.62627053 
H 31.1838169 3.18029618 -2.08742571 
H 31.3863983 3.74858546 -3.49726200 
O 33.6058464 -3.56335789E-02 -2.58667040 
H 33.9292107 0.865222752 -2.73639894 
H 34.3826294 -0.566518426 -2.42324042 
O 34.2928581 2.65482426 -3.14497066 
H 33.4409714 3.05798554 -2.90253997 
H 34.9694633 3.28292847 -2.90594459 
O 33.1856308 2.27422261 -5.81384754 
H 32.3989410 2.82646108 -5.72843456 
H 33.6937599 2.42555022 -5.00760078 
O 29.5042686 1.22618675 -4.81801510 
H 30.3162308 0.687491059 -4.79838085 
H 28.7890968 0.621148705 -4.99086237 
15
substructure 5-mer 342 from 7-mer
O 31.8046837 3.66787028 -2.62627053 
H 31.1838169 3.18029618 -2.08742571 
H 31.3863983 3.74858546 -3.49726200 
O 33.6058464 -3.56335789E-02 -2.58667040 
H 33.9292107 0.865222752 -2.73639894 
H 34.3826294 -0.566518426 -2.42324042 
O 34.2928581 2.65482426 -3.14497066 
H 33.4409714 3.05798554 -2.90253997 
H 34.9694633 3.28292847 -2.90594459 
O 30.6815910 3.63592601 -5.18301725 
H 30.1740513 4.19756079 -5.76215315 
H 30.1868439 2.80138326 -5.09095764 
O 29.5042686 1.22618675 -4.81801510 
H 30.3162308 0.687491059 -4.79838085 
H 28.7890968 0.621148705 -4.99086237 
15
substructure 5-mer 343 from 7-mer
O 31.8046837 3.66787028 -2.62627053 
H 31.1838169 3.18029618 -2.08742571 
H 31.3863983 3.74858546 -3.49726200 
O 33.6058464 -3.56335789E-02 -2.58667040 
H 33.9292107 0.865222752 -2.73639894 
H 34.3826294 -0.566518426 -2.42324042 
O 31.8962173 -3.83262485E-02 -4.83830643 
H 32.3892784 0.634782612 -5.32842875 
H 32.4031677 -0.185341746 -4.02991819 
O 33.1856308 2.27422261 -5.81384754 
H 32.3989410 2.82646108 -5.72843456 
H 33.6937599 2.42555022 -5.00760078 
O 30.6815910 3.63592601 -5.18301725 
H 30.1740513 4.19756079 -5.76215315 
H 30.1868439 2.80138326 -5.09095764 
15
substructure 5-mer 344 from 7-mer
O 31.8046837 3.66787028 -2.62627053 
H 31.1838169 3.18029618 -2.08742571 
H 31.3863983 3.74858546 -3.49726200 
O 33.6058464 -3.56335789E-02 -2.58667040 
H 33.9292107 0.865222752 -2.73639894 
H 34.3826294 -0.566518426 -2.42324042 
O 31.8962173 -3.83262485E-02 -4.83830643 
H 32.3892784 0.634782612 -5.32842875 
H 32.4031677 -0.185341746 -4.02991819 
O 33.1856308 2.27422261 -5.81384754 
H 32.3989410 2.82646108 -5.72843456 
H 33.6937599 2.42555022 -5.00760078 
O 29.5042686 1.22618675 -4.81801510 
H 30.3162308 0.687491059 -4.79838085 
H 28.7890968 0.621148705 -4.99086237 
15
substructure 5-mer 345 from 7-mer
O 31.8046837 3.66787028 -2.62627053 
H 31.1838169 3.18029618 -2.08742571 
H 31.3863983 3.74858546 -3.49726200 
O 33.6058464 -3.56335789E-02 -2.58667040 
H 33.9292107 0.865222752 -2.73639894 
H 34.3826294 -0.566518426 -2.42324042 
O 31.8962173 -3.83262485E-02 -4.83830643 
H 32.3892784 0.634782612 -5.32842875 
H 32.4031677 -0.185341746 -4.02991819 
O 30.6815910 3.63592601 -5.18301725 
H 30.1740513 4.19756079 -5.76215315 
H 30.1868439 2.80138326 -5.09095764 
O 29.5042686 1.22618675 -4.81801510 
H 30.3162308 0.687491059 -4.79838085 
H 28.7890968 0.621148705 -4.99086237 
15
substructure 5-mer 346 from 7-mer
O 31.8046837 3.66787028 -2.62627053 
H 31.1838169 3.18029618 -2.08742571 
H 31.3863983 3.74858546 -3.49726200 
O 33.6058464 -3.56335789E-02 -2.58667040 
H 33.9292107 0.865222752 -2.73639894 
H 34.3826294 -0.566518426 -2.42324042 
O 33.1856308 2.27422261 -5.81384754 
H 32.3989410 2.82646108 -5.72843456 
H 33.6937599 2.42555022 -5.00760078 
O 30.6815910 3.63592601 -5.18301725 
H 30.1740513 4.19756079 -5.76215315 
H 30.1868439 2.80138326 -5.09095764 
O 29.5042686 1.22618675 -4.81801510 
H 30.3162308 0.687491059 -4.79838085 
H 28.7890968 0.621148705 -4.99086237 
15
substructure 5-mer 347 from 7-mer
O 31.8046837 3.66787028 -2.62627053 
H 31.1838169 3.18029618 -2.08742571 
H 31.3863983 3.74858546 -3.49726200 
O 34.2928581 2.65482426 -3.14497066 
H 33.4409714 3.05798554 -2.90253997 
H 34.9694633 3.28292847 -2.90594459 
O 31.8962173 -3.83262485E-02 -4.83830643 
H 32.3892784 0.634782612 -5.32842875 
H 32.4031677 -0.185341746 -4.02991819 
O 33.1856308 2.27422261 -5.81384754 
H 32.3989410 2.82646108 -5.72843456 
H 33.6937599 2.42555022 -5.00760078 
O 30.6815910 3.63592601 -5.18301725 
H 30.1740513 4.19756079 -5.76215315 
H 30.1868439 2.80138326 -5.09095764 
15
substructure 5-mer 348 from 7-mer
O 31.8046837 3.66787028 -2.62627053 
H 31.1838169 3.18029618 -2.08742571 
H 31.3863983 3.74858546 -3.49726200 
O 34.2928581 2.65482426 -3.14497066 
H 33.4409714 3.05798554 -2.90253997 
H 34.9694633 3.28292847 -2.90594459 
O 31.8962173 -3.83262485E-02 -4.83830643 
H 32.3892784 0.634782612 -5.32842875 
H 32.4031677 -0.185341746 -4.02991819 
O 33.1856308 2.27422261 -5.81384754 
H 32.3989410 2.82646108 -5.72843456 
H 33.6937599 2.42555022 -5.00760078 
O 29.5042686 1.22618675 -4.81801510 
H 30.3162308 0.687491059 -4.79838085 
H 28.7890968 0.621148705 -4.99086237 
15
substructure 5-mer 349 from 7-mer
O 31.8046837 3.66787028 -2.62627053 
H 31.1838169 3.18029618 -2.08742571 
H 31.3863983 3.74858546 -3.49726200 
O 34.2928581 2.65482426 -3.14497066 
H 33.4409714 3.05798554 -2.90253997 
H 34.9694633 3.28292847 -2.90594459 
O 31.8962173 -3.83262485E-02 -4.83830643 
H 32.3892784 0.634782612 -5.32842875 
H 32.4031677 -0.185341746 -4.02991819 
O 30.6815910 3.63592601 -5.18301725 
H 30.1740513 4.19756079 -5.76215315 
H 30.1868439 2.80138326 -5.09095764 
O 29.5042686 1.22618675 -4.81801510 
H 30.3162308 0.687491059 -4.79838085 
H 28.7890968 0.621148705 -4.99086237 
15
substructure 5-mer 350 from 7-mer
O 31.8046837 3.66787028 -2.62627053 
H 31.1838169 3.18029618 -2.08742571 
H 31.3863983 3.74858546 -3.49726200 
O 34.2928581 2.65482426 -3.14497066 
H 33.4409714 3.05798554 -2.90253997 
H 34.9694633 3.28292847 -2.90594459 
O 33.1856308 2.27422261 -5.81384754 
H 32.3989410 2.82646108 -5.72843456 
H 33.6937599 2.42555022 -5.00760078 
O 30.6815910 3.63592601 -5.18301725 
H 30.1740513 4.19756079 -5.76215315 
H 30.1868439 2.80138326 -5.09095764 
O 29.5042686 1.22618675 -4.81801510 
H 30.3162308 0.687491059 -4.79838085 
H 28.7890968 0.621148705 -4.99086237 
15
substructure 5-mer 351 from 7-mer
O 31.8046837 3.66787028 -2.62627053 
H 31.1838169 3.18029618 -2.08742571 
H 31.3863983 3.74858546 -3.49726200 
O 31.8962173 -3.83262485E-02 -4.83830643 
H 32.3892784 0.634782612 -5.32842875 
H 32.4031677 -0.185341746 -4.02991819 
O 33.1856308 2.27422261 -5.81384754 
H 32.3989410 2.82646108 -5.72843456 
H 33.6937599 2.42555022 -5.00760078 
O 30.6815910 3.63592601 -5.18301725 
H 30.1740513 4.19756079 -5.76215315 
H 30.1868439 2.80138326 -5.09095764 
O 29.5042686 1.22618675 -4.81801510 
H 30.3162308 0.687491059 -4.79838085 
H 28.7890968 0.621148705 -4.99086237 
15
substructure 5-mer 352 from 7-mer
O 33.6058464 -3.56335789E-02 -2.58667040 
H 33.9292107 0.865222752 -2.73639894 
H 34.3826294 -0.566518426 -2.42324042 
O 34.2928581 2.65482426 -3.14497066 
H 33.4409714 3.05798554 -2.90253997 
H 34.9694633 3.28292847 -2.90594459 
O 31.8962173 -3.83262485E-02 -4.83830643 
H 32.3892784 0.634782612 -5.32842875 
H 32.4031677 -0.185341746 -4.02991819 
O 33.1856308 2.27422261 -5.81384754 
H 32.3989410 2.82646108 -5.72843456 
H 33.6937599 2.42555022 -5.00760078 
O 30.6815910 3.63592601 -5.18301725 
H 30.1740513 4.19756079 -5.76215315 
H 30.1868439 2.80138326 -5.09095764 
15
substructure 5-mer 353 from 7-mer
O 33.6058464 -3.56335789E-02 -2.58667040 
H 33.9292107 0.865222752 -2.73639894 
H 34.3826294 -0.566518426 -2.42324042 
O 34.2928581 2.65482426 -3.14497066 
H 33.4409714 3.05798554 -2.90253997 
H 34.9694633 3.28292847 -2.90594459 
O 31.8962173 -3.83262485E-02 -4.83830643 
H 32.3892784 0.634782612 -5.32842875 
H 32.4031677 -0.185341746 -4.02991819 
O 33.1856308 2.27422261 -5.81384754 
H 32.3989410 2.82646108 -5.72843456 
H 33.6937599 2.42555022 -5.00760078 
O 29.5042686 1.22618675 -4.81801510 
H 30.3162308 0.687491059 -4.79838085 
H 28.7890968 0.621148705 -4.99086237 
15
substructure 5-mer 354 from 7-mer
O 33.6058464 -3.56335789E-02 -2.58667040 
H 33.9292107 0.865222752 -2.73639894 
H 34.3826294 -0.566518426 -2.42324042 
O 34.2928581 2.65482426 -3.14497066 
H 33.4409714 3.05798554 -2.90253997 
H 34.9694633 3.28292847 -2.90594459 
O 31.8962173 -3.83262485E-02 -4.83830643 
H 32.3892784 0.634782612 -5.32842875 
H 32.4031677 -0.185341746 -4.02991819 
O 30.6815910 3.63592601 -5.18301725 
H 30.1740513 4.19756079 -5.76215315 
H 30.1868439 2.80138326 -5.09095764 
O 29.5042686 1.22618675 -4.81801510 
H 30.3162308 0.687491059 -4.79838085 
H 28.7890968 0.621148705 -4.99086237 
15
substructure 5-mer 355 from 7-mer
O 33.6058464 -3.56335789E-02 -2.58667040 
H 33.9292107 0.865222752 -2.73639894 
H 34.3826294 -0.566518426 -2.42324042 
O 34.2928581 2.65482426 -3.14497066 
H 33.4409714 3.05798554 -2.90253997 
H 34.9694633 3.28292847 -2.90594459 
O 33.1856308 2.27422261 -5.81384754 
H 32.3989410 2.82646108 -5.72843456 
H 33.6937599 2.42555022 -5.00760078 
O 30.6815910 3.63592601 -5.18301725 
H 30.1740513 4.19756079 -5.76215315 
H 30.1868439 2.80138326 -5.09095764 
O 29.5042686 1.22618675 -4.81801510 
H 30.3162308 0.687491059 -4.79838085 
H 28.7890968 0.621148705 -4.99086237 
15
substructure 5-mer 356 from 7-mer
O 33.6058464 -3.56335789E-02 -2.58667040 
H 33.9292107 0.865222752 -2.73639894 
H 34.3826294 -0.566518426 -2.42324042 
O 31.8962173 -3.83262485E-02 -4.83830643 
H 32.3892784 0.634782612 -5.32842875 
H 32.4031677 -0.185341746 -4.02991819 
O 33.1856308 2.27422261 -5.81384754 
H 32.3989410 2.82646108 -5.72843456 
H 33.6937599 2.42555022 -5.00760078 
O 30.6815910 3.63592601 -5.18301725 
H 30.1740513 4.19756079 -5.76215315 
H 30.1868439 2.80138326 -5.09095764 
O 29.5042686 1.22618675 -4.81801510 
H 30.3162308 0.687491059 -4.79838085 
H 28.7890968 0.621148705 -4.99086237 
15
substructure 5-mer 357 from 7-mer
O 34.2928581 2.65482426 -3.14497066 
H 33.4409714 3.05798554 -2.90253997 
H 34.9694633 3.28292847 -2.90594459 
O 31.8962173 -3.83262485E-02 -4.83830643 
H 32.3892784 0.634782612 -5.32842875 
H 32.4031677 -0.185341746 -4.02991819 
O 33.1856308 2.27422261 -5.81384754 
H 32.3989410 2.82646108 -5.72843456 
H 33.6937599 2.42555022 -5.00760078 
O 30.6815910 3.63592601 -5.18301725 
H 30.1740513 4.19756079 -5.76215315 
H 30.1868439 2.80138326 -5.09095764 
O 29.5042686 1.22618675 -4.81801510 
H 30.3162308 0.687491059 -4.79838085 
H 28.7890968 0.621148705 -4.99086237 
15
substructure 5-mer 358 from 7-mer
O 33.3201675 3.67790771 -4.92665052 
H 32.5693283 4.05519104 -5.39951611 
H 33.2312164 2.72172499 -5.01890707 
O 30.6791859 1.33557105 -3.27265596 
H 31.4622688 1.09340739 -3.79271531 
H 30.4669952 0.579555511 -2.73053741 
O 31.2615147 0.756839812 -7.20163822 
H 30.5657787 1.30364144 -6.79571772 
H 31.0380287 0.678995848 -8.12432766 
O 29.5462093 2.30041075 -5.75345039 
H 29.8209076 3.22740650 -5.73791122 
H 29.7171593 1.96706748 -4.86425495 
O 31.4357605 4.08939075 -2.87377667 
H 32.2791672 4.00390577 -3.34283614 
H 31.0982819 3.18779206 -2.80650735 
15
substructure 5-mer 359 from 7-mer
O 33.3201675 3.67790771 -4.92665052 
H 32.5693283 4.05519104 -5.39951611 
H 33.2312164 2.72172499 -5.01890707 
O 30.6791859 1.33557105 -3.27265596 
H 31.4622688 1.09340739 -3.79271531 
H 30.4669952 0.579555511 -2.73053741 
O 31.2615147 0.756839812 -7.20163822 
H 30.5657787 1.30364144 -6.79571772 
H 31.0380287 0.678995848 -8.12432766 
O 29.5462093 2.30041075 -5.75345039 
H 29.8209076 3.22740650 -5.73791122 
H 29.7171593 1.96706748 -4.86425495 
O 32.8288918 0.805358708 -4.99715996 
H 32.3397827 0.729260981 -5.83614254 
H 33.5777130 0.218159109 -5.05772400 
15
substructure 5-mer 360 from 7-mer
O 33.3201675 3.67790771 -4.92665052 
H 32.5693283 4.05519104 -5.39951611 
H 33.2312164 2.72172499 -5.01890707 
O 30.6791859 1.33557105 -3.27265596 
H 31.4622688 1.09340739 -3.79271531 
H 30.4669952 0.579555511 -2.73053741 
O 31.2615147 0.756839812 -7.20163822 
H 30.5657787 1.30364144 -6.79571772 
H 31.0380287 0.678995848 -8.12432766 
O 29.5462093 2.30041075 -5.75345039 
H 29.8209076 3.22740650 -5.73791122 
H 29.7171593 1.96706748 -4.86425495 
O 30.6316185 4.87184906 -5.38660383 
H 30.7947636 4.71923590 -4.43938732 
H 30.4380436 5.80069637 -5.48102427 
15
substructure 5-mer 361 from 7-mer
O 33.3201675 3.67790771 -4.92665052 
H 32.5693283 4.05519104 -5.39951611 
H 33.2312164 2.72172499 -5.01890707 
O 30.6791859 1.33557105 -3.27265596 
H 31.4622688 1.09340739 -3.79271531 
H 30.4669952 0.579555511 -2.73053741 
O 31.2615147 0.756839812 -7.20163822 
H 30.5657787 1.30364144 -6.79571772 
H 31.0380287 0.678995848 -8.12432766 
O 31.4357605 4.08939075 -2.87377667 
H 32.2791672 4.00390577 -3.34283614 
H 31.0982819 3.18779206 -2.80650735 
O 32.8288918 0.805358708 -4.99715996 
H 32.3397827 0.729260981 -5.83614254 
H 33.5777130 0.218159109 -5.05772400 
15
substructure 5-mer 362 from 7-mer
O 33.3201675 3.67790771 -4.92665052 
H 32.5693283 4.05519104 -5.39951611 
H 33.2312164 2.72172499 -5.01890707 
O 30.6791859 1.33557105 -3.27265596 
H 31.4622688 1.09340739 -3.79271531 
H 30.4669952 0.579555511 -2.73053741 
O 31.2615147 0.756839812 -7.20163822 
H 30.5657787 1.30364144 -6.79571772 
H 31.0380287 0.678995848 -8.12432766 
O 31.4357605 4.08939075 -2.87377667 
H 32.2791672 4.00390577 -3.34283614 
H 31.0982819 3.18779206 -2.80650735 
O 30.6316185 4.87184906 -5.38660383 
H 30.7947636 4.71923590 -4.43938732 
H 30.4380436 5.80069637 -5.48102427 
15
substructure 5-mer 363 from 7-mer
O 33.3201675 3.67790771 -4.92665052 
H 32.5693283 4.05519104 -5.39951611 
H 33.2312164 2.72172499 -5.01890707 
O 30.6791859 1.33557105 -3.27265596 
H 31.4622688 1.09340739 -3.79271531 
H 30.4669952 0.579555511 -2.73053741 
O 31.2615147 0.756839812 -7.20163822 
H 30.5657787 1.30364144 -6.79571772 
H 31.0380287 0.678995848 -8.12432766 
O 32.8288918 0.805358708 -4.99715996 
H 32.3397827 0.729260981 -5.83614254 
H 33.5777130 0.218159109 -5.05772400 
O 30.6316185 4.87184906 -5.38660383 
H 30.7947636 4.71923590 -4.43938732 
H 30.4380436 5.80069637 -5.48102427 
15
substructure 5-mer 364 from 7-mer
O 33.3201675 3.67790771 -4.92665052 
H 32.5693283 4.05519104 -5.39951611 
H 33.2312164 2.72172499 -5.01890707 
O 30.6791859 1.33557105 -3.27265596 
H 31.4622688 1.09340739 -3.79271531 
H 30.4669952 0.579555511 -2.73053741 
O 29.5462093 2.30041075 -5.75345039 
H 29.8209076 3.22740650 -5.73791122 
H 29.7171593 1.96706748 -4.86425495 
O 31.4357605 4.08939075 -2.87377667 
H 32.2791672 4.00390577 -3.34283614 
H 31.0982819 3.18779206 -2.80650735 
O 32.8288918 0.805358708 -4.99715996 
H 32.3397827 0.729260981 -5.83614254 
H 33.5777130 0.218159109 -5.05772400 
15
substructure 5-mer 365 from 7-mer
O 33.3201675 3.67790771 -4.92665052 
H 32.5693283 4.05519104 -5.39951611 
H 33.2312164 2.72172499 -5.01890707 
O 30.6791859 1.33557105 -3.27265596 
H 31.4622688 1.09340739 -3.79271531 
H 30.4669952 0.579555511 -2.73053741 
O 29.5462093 2.30041075 -5.75345039 
H 29.8209076 3.22740650 -5.73791122 
H 29.7171593 1.96706748 -4.86425495 
O 31.4357605 4.08939075 -2.87377667 
H 32.2791672 4.00390577 -3.34283614 
H 31.0982819 3.18779206 -2.80650735 
O 30.6316185 4.87184906 -5.38660383 
H 30.7947636 4.71923590 -4.43938732 
H 30.4380436 5.80069637 -5.48102427 
15
substructure 5-mer 366 from 7-mer
O 33.3201675 3.67790771 -4.92665052 
H 32.5693283 4.05519104 -5.39951611 
H 33.2312164 2.72172499 -5.01890707 
O 30.6791859 1.33557105 -3.27265596 
H 31.4622688 1.09340739 -3.79271531 
H 30.4669952 0.579555511 -2.73053741 
O 29.5462093 2.30041075 -5.75345039 
H 29.8209076 3.22740650 -5.73791122 
H 29.7171593 1.96706748 -4.86425495 
O 32.8288918 0.805358708 -4.99715996 
H 32.3397827 0.729260981 -5.83614254 
H 33.5777130 0.218159109 -5.05772400 
O 30.6316185 4.87184906 -5.38660383 
H 30.7947636 4.71923590 -4.43938732 
H 30.4380436 5.80069637 -5.48102427 
15
substructure 5-mer 367 from 7-mer
O 33.3201675 3.67790771 -4.92665052 
H 32.5693283 4.05519104 -5.39951611 
H 33.2312164 2.72172499 -5.01890707 
O 30.6791859 1.33557105 -3.27265596 
H 31.4622688 1.09340739 -3.79271531 
H 30.4669952 0.579555511 -2.73053741 
O 31.4357605 4.08939075 -2.87377667 
H 32.2791672 4.00390577 -3.34283614 
H 31.0982819 3.18779206 -2.80650735 
O 32.8288918 0.805358708 -4.99715996 
H 32.3397827 0.729260981 -5.83614254 
H 33.5777130 0.218159109 -5.05772400 
O 30.6316185 4.87184906 -5.38660383 
H 30.7947636 4.71923590 -4.43938732 
H 30.4380436 5.80069637 -5.48102427 
15
substructure 5-mer 368 from 7-mer
O 33.3201675 3.67790771 -4.92665052 
H 32.5693283 4.05519104 -5.39951611 
H 33.2312164 2.72172499 -5.01890707 
O 31.2615147 0.756839812 -7.20163822 
H 30.5657787 1.30364144 -6.79571772 
H 31.0380287 0.678995848 -8.12432766 
O 29.5462093 2.30041075 -5.75345039 
H 29.8209076 3.22740650 -5.73791122 
H 29.7171593 1.96706748 -4.86425495 
O 31.4357605 4.08939075 -2.87377667 
H 32.2791672 4.00390577 -3.34283614 
H 31.0982819 3.18779206 -2.80650735 
O 32.8288918 0.805358708 -4.99715996 
H 32.3397827 0.729260981 -5.83614254 
H 33.5777130 0.218159109 -5.05772400 
15
substructure 5-mer 369 from 7-mer
O 33.3201675 3.67790771 -4.92665052 
H 32.5693283 4.05519104 -5.39951611 
H 33.2312164 2.72172499 -5.01890707 
O 31.2615147 0.756839812 -7.20163822 
H 30.5657787 1.30364144 -6.79571772 
H 31.0380287 0.678995848 -8.12432766 
O 29.5462093 2.30041075 -5.75345039 
H 29.8209076 3.22740650 -5.73791122 
H 29.7171593 1.96706748 -4.86425495 
O 31.4357605 4.08939075 -2.87377667 
H 32.2791672 4.00390577 -3.34283614 
H 31.0982819 3.18779206 -2.80650735 
O 30.6316185 4.87184906 -5.38660383 
H 30.7947636 4.71923590 -4.43938732 
H 30.4380436 5.80069637 -5.48102427 
15
substructure 5-mer 370 from 7-mer
O 33.3201675 3.67790771 -4.92665052 
H 32.5693283 4.05519104 -5.39951611 
H 33.2312164 2.72172499 -5.01890707 
O 31.2615147 0.756839812 -7.20163822 
H 30.5657787 1.30364144 -6.79571772 
H 31.0380287 0.678995848 -8.12432766 
O 29.5462093 2.30041075 -5.75345039 
H 29.8209076 3.22740650 -5.73791122 
H 29.7171593 1.96706748 -4.86425495 
O 32.8288918 0.805358708 -4.99715996 
H 32.3397827 0.729260981 -5.83614254 
H 33.5777130 0.218159109 -5.05772400 
O 30.6316185 4.87184906 -5.38660383 
H 30.7947636 4.71923590 -4.43938732 
H 30.4380436 5.80069637 -5.48102427 
15
substructure 5-mer 371 from 7-mer
O 33.3201675 3.67790771 -4.92665052 
H 32.5693283 4.05519104 -5.39951611 
H 33.2312164 2.72172499 -5.01890707 
O 31.2615147 0.756839812 -7.20163822 
H 30.5657787 1.30364144 -6.79571772 
H 31.0380287 0.678995848 -8.12432766 
O 31.4357605 4.08939075 -2.87377667 
H 32.2791672 4.00390577 -3.34283614 
H 31.0982819 3.18779206 -2.80650735 
O 32.8288918 0.805358708 -4.99715996 
H 32.3397827 0.729260981 -5.83614254 
H 33.5777130 0.218159109 -5.05772400 
O 30.6316185 4.87184906 -5.38660383 
H 30.7947636 4.71923590 -4.43938732 
H 30.4380436 5.80069637 -5.48102427 
15
substructure 5-mer 372 from 7-mer
O 33.3201675 3.67790771 -4.92665052 
H 32.5693283 4.05519104 -5.39951611 
H 33.2312164 2.72172499 -5.01890707 
O 29.5462093 2.30041075 -5.75345039 
H 29.8209076 3.22740650 -5.73791122 
H 29.7171593 1.96706748 -4.86425495 
O 31.4357605 4.08939075 -2.87377667 
H 32.2791672 4.00390577 -3.34283614 
H 31.0982819 3.18779206 -2.80650735 
O 32.8288918 0.805358708 -4.99715996 
H 32.3397827 0.729260981 -5.83614254 
H 33.5777130 0.218159109 -5.05772400 
O 30.6316185 4.87184906 -5.38660383 
H 30.7947636 4.71923590 -4.43938732 
H 30.4380436 5.80069637 -5.48102427 
15
substructure 5-mer 373 from 7-mer
O 30.6791859 1.33557105 -3.27265596 
H 31.4622688 1.09340739 -3.79271531 
H 30.4669952 0.579555511 -2.73053741 
O 31.2615147 0.756839812 -7.20163822 
H 30.5657787 1.30364144 -6.79571772 
H 31.0380287 0.678995848 -8.12432766 
O 29.5462093 2.30041075 -5.75345039 
H 29.8209076 3.22740650 -5.73791122 
H 29.7171593 1.96706748 -4.86425495 
O 31.4357605 4.08939075 -2.87377667 
H 32.2791672 4.00390577 -3.34283614 
H 31.0982819 3.18779206 -2.80650735 
O 32.8288918 0.805358708 -4.99715996 
H 32.3397827 0.729260981 -5.83614254 
H 33.5777130 0.218159109 -5.05772400 
15
substructure 5-mer 374 from 7-mer
O 30.6791859 1.33557105 -3.27265596 
H 31.4622688 1.09340739 -3.79271531 
H 30.4669952 0.579555511 -2.73053741 
O 31.2615147 0.756839812 -7.20163822 
H 30.5657787 1.30364144 -6.79571772 
H 31.0380287 0.678995848 -8.12432766 
O 29.5462093 2.30041075 -5.75345039 
H 29.8209076 3.22740650 -5.73791122 
H 29.7171593 1.96706748 -4.86425495 
O 31.4357605 4.08939075 -2.87377667 
H 32.2791672 4.00390577 -3.34283614 
H 31.0982819 3.18779206 -2.80650735 
O 30.6316185 4.87184906 -5.38660383 
H 30.7947636 4.71923590 -4.43938732 
H 30.4380436 5.80069637 -5.48102427 
15
substructure 5-mer 375 from 7-mer
O 30.6791859 1.33557105 -3.27265596 
H 31.4622688 1.09340739 -3.79271531 
H 30.4669952 0.579555511 -2.73053741 
O 31.2615147 0.756839812 -7.20163822 
H 30.5657787 1.30364144 -6.79571772 
H 31.0380287 0.678995848 -8.12432766 
O 29.5462093 2.30041075 -5.75345039 
H 29.8209076 3.22740650 -5.73791122 
H 29.7171593 1.96706748 -4.86425495 
O 32.8288918 0.805358708 -4.99715996 
H 32.3397827 0.729260981 -5.83614254 
H 33.5777130 0.218159109 -5.05772400 
O 30.6316185 4.87184906 -5.38660383 
H 30.7947636 4.71923590 -4.43938732 
H 30.4380436 5.80069637 -5.48102427 
15
substructure 5-mer 376 from 7-mer
O 30.6791859 1.33557105 -3.27265596 
H 31.4622688 1.09340739 -3.79271531 
H 30.4669952 0.579555511 -2.73053741 
O 31.2615147 0.756839812 -7.20163822 
H 30.5657787 1.30364144 -6.79571772 
H 31.0380287 0.678995848 -8.12432766 
O 31.4357605 4.08939075 -2.87377667 
H 32.2791672 4.00390577 -3.34283614 
H 31.0982819 3.18779206 -2.80650735 
O 32.8288918 0.805358708 -4.99715996 
H 32.3397827 0.729260981 -5.83614254 
H 33.5777130 0.218159109 -5.05772400 
O 30.6316185 4.87184906 -5.38660383 
H 30.7947636 4.71923590 -4.43938732 
H 30.4380436 5.80069637 -5.48102427 
15
substructure 5-mer 377 from 7-mer
O 30.6791859 1.33557105 -3.27265596 
H 31.4622688 1.09340739 -3.79271531 
H 30.4669952 0.579555511 -2.73053741 
O 29.5462093 2.30041075 -5.75345039 
H 29.8209076 3.22740650 -5.73791122 
H 29.7171593 1.96706748 -4.86425495 
O 31.4357605 4.08939075 -2.87377667 
H 32.2791672 4.00390577 -3.34283614 
H 31.0982819 3.18779206 -2.80650735 
O 32.8288918 0.805358708 -4.99715996 
H 32.3397827 0.729260981 -5.83614254 
H 33.5777130 0.218159109 -5.05772400 
O 30.6316185 4.87184906 -5.38660383 
H 30.7947636 4.71923590 -4.43938732 
H 30.4380436 5.80069637 -5.48102427 
15
substructure 5-mer 378 from 7-mer
O 31.2615147 0.756839812 -7.20163822 
H 30.5657787 1.30364144 -6.79571772 
H 31.0380287 0.678995848 -8.12432766 
O 29.5462093 2.30041075 -5.75345039 
H 29.8209076 3.22740650 -5.73791122 
H 29.7171593 1.96706748 -4.86425495 
O 31.4357605 4.08939075 -2.87377667 
H 32.2791672 4.00390577 -3.34283614 
H 31.0982819 3.18779206 -2.80650735 
O 32.8288918 0.805358708 -4.99715996 
H 32.3397827 0.729260981 -5.83614254 
H 33.5777130 0.218159109 -5.05772400 
O 30.6316185 4.87184906 -5.38660383 
H 30.7947636 4.71923590 -4.43938732 
H 30.4380436 5.80069637 -5.48102427 
15
substructure 5-mer 379 from 7-mer
O 33.1478233 4.78413486 -2.71175194 
H 33.4094772 3.92179894 -2.35677218 
H 33.6556320 5.43149996 -2.22852159 
O 33.7203102 2.04321289 -2.23810244 
H 34.2282600 2.01200867 -3.06268859 
H 32.8162384 1.80679393 -2.49439096 
O 33.2331200 -0.530324519 -4.38058472 
H 32.4190216 -5.45148216E-02 -4.17168283 
H 33.5991859 -0.802308559 -3.52657580 
O 31.2645626 1.40409470 -3.54599118 
H 30.3222523 1.47940612 -3.42507362 
H 31.5277672 2.12252069 -4.14854956 
O 34.7255058 1.70233309 -4.88822222 
H 34.2610893 0.847967505 -4.83469582 
H 35.5416641 1.54179299 -5.35336113 
15
substructure 5-mer 380 from 7-mer
O 33.1478233 4.78413486 -2.71175194 
H 33.4094772 3.92179894 -2.35677218 
H 33.6556320 5.43149996 -2.22852159 
O 33.7203102 2.04321289 -2.23810244 
H 34.2282600 2.01200867 -3.06268859 
H 32.8162384 1.80679393 -2.49439096 
O 33.2331200 -0.530324519 -4.38058472 
H 32.4190216 -5.45148216E-02 -4.17168283 
H 33.5991859 -0.802308559 -3.52657580 
O 31.2645626 1.40409470 -3.54599118 
H 30.3222523 1.47940612 -3.42507362 
H 31.5277672 2.12252069 -4.14854956 
O 32.3939590 3.39151645 -5.04408550 
H 33.2254410 2.92745113 -5.20555496 
H 32.5924034 4.04488468 -4.35776377 
15
substructure 5-mer 381 from 7-mer
O 33.1478233 4.78413486 -2.71175194 
H 33.4094772 3.92179894 -2.35677218 
H 33.6556320 5.43149996 -2.22852159 
O 33.7203102 2.04321289 -2.23810244 
H 34.2282600 2.01200867 -3.06268859 
H 32.8162384 1.80679393 -2.49439096 
O 33.2331200 -0.530324519 -4.38058472 
H 32.4190216 -5.45148216E-02 -4.17168283 
H 33.5991859 -0.802308559 -3.52657580 
O 31.2645626 1.40409470 -3.54599118 
H 30.3222523 1.47940612 -3.42507362 
H 31.5277672 2.12252069 -4.14854956 
O 34.2898521 -0.699701309 -1.77249789 
H 34.1737099 0.260943383 -1.73043001 
H 34.2906418 -1.00345564 -0.867956638 
15
substructure 5-mer 382 from 7-mer
O 33.1478233 4.78413486 -2.71175194 
H 33.4094772 3.92179894 -2.35677218 
H 33.6556320 5.43149996 -2.22852159 
O 33.7203102 2.04321289 -2.23810244 
H 34.2282600 2.01200867 -3.06268859 
H 32.8162384 1.80679393 -2.49439096 
O 33.2331200 -0.530324519 -4.38058472 
H 32.4190216 -5.45148216E-02 -4.17168283 
H 33.5991859 -0.802308559 -3.52657580 
O 34.7255058 1.70233309 -4.88822222 
H 34.2610893 0.847967505 -4.83469582 
H 35.5416641 1.54179299 -5.35336113 
O 32.3939590 3.39151645 -5.04408550 
H 33.2254410 2.92745113 -5.20555496 
H 32.5924034 4.04488468 -4.35776377 
15
substructure 5-mer 383 from 7-mer
O 33.1478233 4.78413486 -2.71175194 
H 33.4094772 3.92179894 -2.35677218 
H 33.6556320 5.43149996 -2.22852159 
O 33.7203102 2.04321289 -2.23810244 
H 34.2282600 2.01200867 -3.06268859 
H 32.8162384 1.80679393 -2.49439096 
O 33.2331200 -0.530324519 -4.38058472 
H 32.4190216 -5.45148216E-02 -4.17168283 
H 33.5991859 -0.802308559 -3.52657580 
O 34.7255058 1.70233309 -4.88822222 
H 34.2610893 0.847967505 -4.83469582 
H 35.5416641 1.54179299 -5.35336113 
O 34.2898521 -0.699701309 -1.77249789 
H 34.1737099 0.260943383 -1.73043001 
H 34.2906418 -1.00345564 -0.867956638 
15
substructure 5-mer 384 from 7-mer
O 33.1478233 4.78413486 -2.71175194 
H 33.4094772 3.92179894 -2.35677218 
H 33.6556320 5.43149996 -2.22852159 
O 33.7203102 2.04321289 -2.23810244 
H 34.2282600 2.01200867 -3.06268859 
H 32.8162384 1.80679393 -2.49439096 
O 33.2331200 -0.530324519 -4.38058472 
H 32.4190216 -5.45148216E-02 -4.17168283 
H 33.5991859 -0.802308559 -3.52657580 
O 32.3939590 3.39151645 -5.04408550 
H 33.2254410 2.92745113 -5.20555496 
H 32.5924034 4.04488468 -4.35776377 
O 34.2898521 -0.699701309 -1.77249789 
H 34.1737099 0.260943383 -1.73043001 
H 34.2906418 -1.00345564 -0.867956638 
15
substructure 5-mer 385 from 7-mer
O 33.1478233 4.78413486 -2.71175194 
H 33.4094772 3.92179894 -2.35677218 
H 33.6556320 5.43149996 -2.22852159 
O 33.7203102 2.04321289 -2.23810244 
H 34.2282600 2.01200867 -3.06268859 
H 32.8162384 1.80679393 -2.49439096 
O 31.2645626 1.40409470 -3.54599118 
H 30.3222523 1.47940612 -3.42507362 
H 31.5277672 2.12252069 -4.14854956 
O 34.7255058 1.70233309 -4.88822222 
H 34.2610893 0.847967505 -4.83469582 
H 35.5416641 1.54179299 -5.35336113 
O 32.3939590 3.39151645 -5.04408550 
H 33.2254410 2.92745113 -5.20555496 
H 32.5924034 4.04488468 -4.35776377 
15
substructure 5-mer 386 from 7-mer
O 33.1478233 4.78413486 -2.71175194 
H 33.4094772 3.92179894 -2.35677218 
H 33.6556320 5.43149996 -2.22852159 
O 33.7203102 2.04321289 -2.23810244 
H 34.2282600 2.01200867 -3.06268859 
H 32.8162384 1.80679393 -2.49439096 
O 31.2645626 1.40409470 -3.54599118 
H 30.3222523 1.47940612 -3.42507362 
H 31.5277672 2.12252069 -4.14854956 
O 34.7255058 1.70233309 -4.88822222 
H 34.2610893 0.847967505 -4.83469582 
H 35.5416641 1.54179299 -5.35336113 
O 34.2898521 -0.699701309 -1.77249789 
H 34.1737099 0.260943383 -1.73043001 
H 34.2906418 -1.00345564 -0.867956638 
15
substructure 5-mer 387 from 7-mer
O 33.1478233 4.78413486 -2.71175194 
H 33.4094772 3.92179894 -2.35677218 
H 33.6556320 5.43149996 -2.22852159 
O 33.7203102 2.04321289 -2.23810244 
H 34.2282600 2.01200867 -3.06268859 
H 32.8162384 1.80679393 -2.49439096 
O 31.2645626 1.40409470 -3.54599118 
H 30.3222523 1.47940612 -3.42507362 
H 31.5277672 2.12252069 -4.14854956 
O 32.3939590 3.39151645 -5.04408550 
H 33.2254410 2.92745113 -5.20555496 
H 32.5924034 4.04488468 -4.35776377 
O 34.2898521 -0.699701309 -1.77249789 
H 34.1737099 0.260943383 -1.73043001 
H 34.2906418 -1.00345564 -0.867956638 
15
substructure 5-mer 388 from 7-mer
O 33.1478233 4.78413486 -2.71175194 
H 33.4094772 3.92179894 -2.35677218 
H 33.6556320 5.43149996 -2.22852159 
O 33.7203102 2.04321289 -2.23810244 
H 34.2282600 2.01200867 -3.06268859 
H 32.8162384 1.80679393 -2.49439096 
O 34.7255058 1.70233309 -4.88822222 
H 34.2610893 0.847967505 -4.83469582 
H 35.5416641 1.54179299 -5.35336113 
O 32.3939590 3.39151645 -5.04408550 
H 33.2254410 2.92745113 -5.20555496 
H 32.5924034 4.04488468 -4.35776377 
O 34.2898521 -0.699701309 -1.77249789 
H 34.1737099 0.260943383 -1.73043001 
H 34.2906418 -1.00345564 -0.867956638 
15
substructure 5-mer 389 from 7-mer
O 33.1478233 4.78413486 -2.71175194 
H 33.4094772 3.92179894 -2.35677218 
H 33.6556320 5.43149996 -2.22852159 
O 33.2331200 -0.530324519 -4.38058472 
H 32.4190216 -5.45148216E-02 -4.17168283 
H 33.5991859 -0.802308559 -3.52657580 
O 31.2645626 1.40409470 -3.54599118 
H 30.3222523 1.47940612 -3.42507362 
H 31.5277672 2.12252069 -4.14854956 
O 34.7255058 1.70233309 -4.88822222 
H 34.2610893 0.847967505 -4.83469582 
H 35.5416641 1.54179299 -5.35336113 
O 32.3939590 3.39151645 -5.04408550 
H 33.2254410 2.92745113 -5.20555496 
H 32.5924034 4.04488468 -4.35776377 
15
substructure 5-mer 390 from 7-mer
O 33.1478233 4.78413486 -2.71175194 
H 33.4094772 3.92179894 -2.35677218 
H 33.6556320 5.43149996 -2.22852159 
O 33.2331200 -0.530324519 -4.38058472 
H 32.4190216 -5.45148216E-02 -4.17168283 
H 33.5991859 -0.802308559 -3.52657580 
O 31.2645626 1.40409470 -3.54599118 
H 30.3222523 1.47940612 -3.42507362 
H 31.5277672 2.12252069 -4.14854956 
O 34.7255058 1.70233309 -4.88822222 
H 34.2610893 0.847967505 -4.83469582 
H 35.5416641 1.54179299 -5.35336113 
O 34.2898521 -0.699701309 -1.77249789 
H 34.1737099 0.260943383 -1.73043001 
H 34.2906418 -1.00345564 -0.867956638 
15
substructure 5-mer 391 from 7-mer
O 33.1478233 4.78413486 -2.71175194 
H 33.4094772 3.92179894 -2.35677218 
H 33.6556320 5.43149996 -2.22852159 
O 33.2331200 -0.530324519 -4.38058472 
H 32.4190216 -5.45148216E-02 -4.17168283 
H 33.5991859 -0.802308559 -3.52657580 
O 31.2645626 1.40409470 -3.54599118 
H 30.3222523 1.47940612 -3.42507362 
H 31.5277672 2.12252069 -4.14854956 
O 32.3939590 3.39151645 -5.04408550 
H 33.2254410 2.92745113 -5.20555496 
H 32.5924034 4.04488468 -4.35776377 
O 34.2898521 -0.699701309 -1.77249789 
H 34.1737099 0.260943383 -1.73043001 
H 34.2906418 -1.00345564 -0.867956638 
15
substructure 5-mer 392 from 7-mer
O 33.1478233 4.78413486 -2.71175194 
H 33.4094772 3.92179894 -2.35677218 
H 33.6556320 5.43149996 -2.22852159 
O 33.2331200 -0.530324519 -4.38058472 
H 32.4190216 -5.45148216E-02 -4.17168283 
H 33.5991859 -0.802308559 -3.52657580 
O 34.7255058 1.70233309 -4.88822222 
H 34.2610893 0.847967505 -4.83469582 
H 35.5416641 1.54179299 -5.35336113 
O 32.3939590 3.39151645 -5.04408550 
H 33.2254410 2.92745113 -5.20555496 
H 32.5924034 4.04488468 -4.35776377 
O 34.2898521 -0.699701309 -1.77249789 
H 34.1737099 0.260943383 -1.73043001 
H 34.2906418 -1.00345564 -0.867956638 
15
substructure 5-mer 393 from 7-mer
O 33.1478233 4.78413486 -2.71175194 
H 33.4094772 3.92179894 -2.35677218 
H 33.6556320 5.43149996 -2.22852159 
O 31.2645626 1.40409470 -3.54599118 
H 30.3222523 1.47940612 -3.42507362 
H 31.5277672 2.12252069 -4.14854956 
O 34.7255058 1.70233309 -4.88822222 
H 34.2610893 0.847967505 -4.83469582 
H 35.5416641 1.54179299 -5.35336113 
O 32.3939590 3.39151645 -5.04408550 
H 33.2254410 2.92745113 -5.20555496 
H 32.5924034 4.04488468 -4.35776377 
O 34.2898521 -0.699701309 -1.77249789 
H 34.1737099 0.260943383 -1.73043001 
H 34.2906418 -1.00345564 -0.867956638 
15
substructure 5-mer 394 from 7-mer
O 33.7203102 2.04321289 -2.23810244 
H 34.2282600 2.01200867 -3.06268859 
H 32.8162384 1.80679393 -2.49439096 
O 33.2331200 -0.530324519 -4.38058472 
H 32.4190216 -5.45148216E-02 -4.17168283 
H 33.5991859 -0.802308559 -3.52657580 
O 31.2645626 1.40409470 -3.54599118 
H 30.3222523 1.47940612 -3.42507362 
H 31.5277672 2.12252069 -4.14854956 
O 34.7255058 1.70233309 -4.88822222 
H 34.2610893 0.847967505 -4.83469582 
H 35.5416641 1.54179299 -5.35336113 
O 32.3939590 3.39151645 -5.04408550 
H 33.2254410 2.92745113 -5.20555496 
H 32.5924034 4.04488468 -4.35776377 
15
substructure 5-mer 395 from 7-mer
O 33.7203102 2.04321289 -2.23810244 
H 34.2282600 2.01200867 -3.06268859 
H 32.8162384 1.80679393 -2.49439096 
O 33.2331200 -0.530324519 -4.38058472 
H 32.4190216 -5.45148216E-02 -4.17168283 
H 33.5991859 -0.802308559 -3.52657580 
O 31.2645626 1.40409470 -3.54599118 
H 30.3222523 1.47940612 -3.42507362 
H 31.5277672 2.12252069 -4.14854956 
O 34.7255058 1.70233309 -4.88822222 
H 34.2610893 0.847967505 -4.83469582 
H 35.5416641 1.54179299 -5.35336113 
O 34.2898521 -0.699701309 -1.77249789 
H 34.1737099 0.260943383 -1.73043001 
H 34.2906418 -1.00345564 -0.867956638 
15
substructure 5-mer 396 from 7-mer
O 33.7203102 2.04321289 -2.23810244 
H 34.2282600 2.01200867 -3.06268859 
H 32.8162384 1.80679393 -2.49439096 
O 33.2331200 -0.530324519 -4.38058472 
H 32.4190216 -5.45148216E-02 -4.17168283 
H 33.5991859 -0.802308559 -3.52657580 
O 31.2645626 1.40409470 -3.54599118 
H 30.3222523 1.47940612 -3.42507362 
H 31.5277672 2.12252069 -4.14854956 
O 32.3939590 3.39151645 -5.04408550 
H 33.2254410 2.92745113 -5.20555496 
H 32.5924034 4.04488468 -4.35776377 
O 34.2898521 -0.699701309 -1.77249789 
H 34.1737099 0.260943383 -1.73043001 
H 34.2906418 -1.00345564 -0.867956638 
15
substructure 5-mer 397 from 7-mer
O 33.7203102 2.04321289 -2.23810244 
H 34.2282600 2.01200867 -3.06268859 
H 32.8162384 1.80679393 -2.49439096 
O 33.2331200 -0.530324519 -4.38058472 
H 32.4190216 -5.45148216E-02 -4.17168283 
H 33.5991859 -0.802308559 -3.52657580 
O 34.7255058 1.70233309 -4.88822222 
H 34.2610893 0.847967505 -4.83469582 
H 35.5416641 1.54179299 -5.35336113 
O 32.3939590 3.39151645 -5.04408550 
H 33.2254410 2.92745113 -5.20555496 
H 32.5924034 4.04488468 -4.35776377 
O 34.2898521 -0.699701309 -1.77249789 
H 34.1737099 0.260943383 -1.73043001 
H 34.2906418 -1.00345564 -0.867956638 
15
substructure 5-mer 398 from 7-mer
O 33.7203102 2.04321289 -2.23810244 
H 34.2282600 2.01200867 -3.06268859 
H 32.8162384 1.80679393 -2.49439096 
O 31.2645626 1.40409470 -3.54599118 
H 30.3222523 1.47940612 -3.42507362 
H 31.5277672 2.12252069 -4.14854956 
O 34.7255058 1.70233309 -4.88822222 
H 34.2610893 0.847967505 -4.83469582 
H 35.5416641 1.54179299 -5.35336113 
O 32.3939590 3.39151645 -5.04408550 
H 33.2254410 2.92745113 -5.20555496 
H 32.5924034 4.04488468 -4.35776377 
O 34.2898521 -0.699701309 -1.77249789 
H 34.1737099 0.260943383 -1.73043001 
H 34.2906418 -1.00345564 -0.867956638 
15
substructure 5-mer 399 from 7-mer
O 33.2331200 -0.530324519 -4.38058472 
H 32.4190216 -5.45148216E-02 -4.17168283 
H 33.5991859 -0.802308559 -3.52657580 
O 31.2645626 1.40409470 -3.54599118 
H 30.3222523 1.47940612 -3.42507362 
H 31.5277672 2.12252069 -4.14854956 
O 34.7255058 1.70233309 -4.88822222 
H 34.2610893 0.847967505 -4.83469582 
H 35.5416641 1.54179299 -5.35336113 
O 32.3939590 3.39151645 -5.04408550 
H 33.2254410 2.92745113 -5.20555496 
H 32.5924034 4.04488468 -4.35776377 
O 34.2898521 -0.699701309 -1.77249789 
H 34.1737099 0.260943383 -1.73043001 
H 34.2906418 -1.00345564 -0.867956638 
15
substructure 5-mer 400 from 7-mer
O 32.3070183 4.24709272 -3.69066930 
H 31.3722973 4.00080538 -3.61893249 
H 32.8008804 3.59391427 -3.18181443 
O 32.9756851 3.59987736 -6.23841763 
H 32.9131775 4.33559513 -6.84104490 
H 32.7328529 3.93645430 -5.35600233 
O 29.7030010 3.28264499 -3.82171893 
H 28.8018818 3.51033521 -4.03440714 
H 29.9951630 2.66919875 -4.51685858 
O 30.8817787 1.63884985 -5.71033859 
H 31.3102760 1.04050446 -5.08096838 
H 31.5755882 2.22083306 -6.04071617 
O 34.9452896 1.91263485 -5.22964859 
H 34.9309120 1.09203947 -5.71885586 
H 34.3298721 2.50611067 -5.68853760 
15
substructure 5-mer 401 from 7-mer
O 32.3070183 4.24709272 -3.69066930 
H 31.3722973 4.00080538 -3.61893249 
H 32.8008804 3.59391427 -3.18181443 
O 32.9756851 3.59987736 -6.23841763 
H 32.9131775 4.33559513 -6.84104490 
H 32.7328529 3.93645430 -5.35600233 
O 29.7030010 3.28264499 -3.82171893 
H 28.8018818 3.51033521 -4.03440714 
H 29.9951630 2.66919875 -4.51685858 
O 30.8817787 1.63884985 -5.71033859 
H 31.3102760 1.04050446 -5.08096838 
H 31.5755882 2.22083306 -6.04071617 
O 33.9397087 2.07589960 -2.68652439 
H 34.6153297 2.13265109 -2.01587176 
H 34.3999023 2.02415657 -3.54278922 
15
substructure 5-mer 402 from 7-mer
O 32.3070183 4.24709272 -3.69066930 
H 31.3722973 4.00080538 -3.61893249 
H 32.8008804 3.59391427 -3.18181443 
O 32.9756851 3.59987736 -6.23841763 
H 32.9131775 4.33559513 -6.84104490 
H 32.7328529 3.93645430 -5.35600233 
O 29.7030010 3.28264499 -3.82171893 
H 28.8018818 3.51033521 -4.03440714 
H 29.9951630 2.66919875 -4.51685858 
O 30.8817787 1.63884985 -5.71033859 
H 31.3102760 1.04050446 -5.08096838 
H 31.5755882 2.22083306 -6.04071617 
O 32.0920868 0.149908900 -3.64473271 
H 31.5288162 -0.183412760 -2.94851589 
H 32.6918640 0.777850449 -3.21691346 
15
substructure 5-mer 403 from 7-mer
O 32.3070183 4.24709272 -3.69066930 
H 31.3722973 4.00080538 -3.61893249 
H 32.8008804 3.59391427 -3.18181443 
O 32.9756851 3.59987736 -6.23841763 
H 32.9131775 4.33559513 -6.84104490 
H 32.7328529 3.93645430 -5.35600233 
O 29.7030010 3.28264499 -3.82171893 
H 28.8018818 3.51033521 -4.03440714 
H 29.9951630 2.66919875 -4.51685858 
O 34.9452896 1.91263485 -5.22964859 
H 34.9309120 1.09203947 -5.71885586 
H 34.3298721 2.50611067 -5.68853760 
O 33.9397087 2.07589960 -2.68652439 
H 34.6153297 2.13265109 -2.01587176 
H 34.3999023 2.02415657 -3.54278922 
15
substructure 5-mer 404 from 7-mer
O 32.3070183 4.24709272 -3.69066930 
H 31.3722973 4.00080538 -3.61893249 
H 32.8008804 3.59391427 -3.18181443 
O 32.9756851 3.59987736 -6.23841763 
H 32.9131775 4.33559513 -6.84104490 
H 32.7328529 3.93645430 -5.35600233 
O 29.7030010 3.28264499 -3.82171893 
H 28.8018818 3.51033521 -4.03440714 
H 29.9951630 2.66919875 -4.51685858 
O 34.9452896 1.91263485 -5.22964859 
H 34.9309120 1.09203947 -5.71885586 
H 34.3298721 2.50611067 -5.68853760 
O 32.0920868 0.149908900 -3.64473271 
H 31.5288162 -0.183412760 -2.94851589 
H 32.6918640 0.777850449 -3.21691346 
15
substructure 5-mer 405 from 7-mer
O 32.3070183 4.24709272 -3.69066930 
H 31.3722973 4.00080538 -3.61893249 
H 32.8008804 3.59391427 -3.18181443 
O 32.9756851 3.59987736 -6.23841763 
H 32.9131775 4.33559513 -6.84104490 
H 32.7328529 3.93645430 -5.35600233 
O 29.7030010 3.28264499 -3.82171893 
H 28.8018818 3.51033521 -4.03440714 
H 29.9951630 2.66919875 -4.51685858 
O 33.9397087 2.07589960 -2.68652439 
H 34.6153297 2.13265109 -2.01587176 
H 34.3999023 2.02415657 -3.54278922 
O 32.0920868 0.149908900 -3.64473271 
H 31.5288162 -0.183412760 -2.94851589 
H 32.6918640 0.777850449 -3.21691346 
15
substructure 5-mer 406 from 7-mer
O 32.3070183 4.24709272 -3.69066930 
H 31.3722973 4.00080538 -3.61893249 
H 32.8008804 3.59391427 -3.18181443 
O 32.9756851 3.59987736 -6.23841763 
H 32.9131775 4.33559513 -6.84104490 
H 32.7328529 3.93645430 -5.35600233 
O 30.8817787 1.63884985 -5.71033859 
H 31.3102760 1.04050446 -5.08096838 
H 31.5755882 2.22083306 -6.04071617 
O 34.9452896 1.91263485 -5.22964859 
H 34.9309120 1.09203947 -5.71885586 
H 34.3298721 2.50611067 -5.68853760 
O 33.9397087 2.07589960 -2.68652439 
H 34.6153297 2.13265109 -2.01587176 
H 34.3999023 2.02415657 -3.54278922 
15
substructure 5-mer 407 from 7-mer
O 32.3070183 4.24709272 -3.69066930 
H 31.3722973 4.00080538 -3.61893249 
H 32.8008804 3.59391427 -3.18181443 
O 32.9756851 3.59987736 -6.23841763 
H 32.9131775 4.33559513 -6.84104490 
H 32.7328529 3.93645430 -5.35600233 
O 30.8817787 1.63884985 -5.71033859 
H 31.3102760 1.04050446 -5.08096838 
H 31.5755882 2.22083306 -6.04071617 
O 34.9452896 1.91263485 -5.22964859 
H 34.9309120 1.09203947 -5.71885586 
H 34.3298721 2.50611067 -5.68853760 
O 32.0920868 0.149908900 -3.64473271 
H 31.5288162 -0.183412760 -2.94851589 
H 32.6918640 0.777850449 -3.21691346 
15
substructure 5-mer 408 from 7-mer
O 32.3070183 4.24709272 -3.69066930 
H 31.3722973 4.00080538 -3.61893249 
H 32.8008804 3.59391427 -3.18181443 
O 32.9756851 3.59987736 -6.23841763 
H 32.9131775 4.33559513 -6.84104490 
H 32.7328529 3.93645430 -5.35600233 
O 30.8817787 1.63884985 -5.71033859 
H 31.3102760 1.04050446 -5.08096838 
H 31.5755882 2.22083306 -6.04071617 
O 33.9397087 2.07589960 -2.68652439 
H 34.6153297 2.13265109 -2.01587176 
H 34.3999023 2.02415657 -3.54278922 
O 32.0920868 0.149908900 -3.64473271 
H 31.5288162 -0.183412760 -2.94851589 
H 32.6918640 0.777850449 -3.21691346 
15
substructure 5-mer 409 from 7-mer
O 32.3070183 4.24709272 -3.69066930 
H 31.3722973 4.00080538 -3.61893249 
H 32.8008804 3.59391427 -3.18181443 
O 32.9756851 3.59987736 -6.23841763 
H 32.9131775 4.33559513 -6.84104490 
H 32.7328529 3.93645430 -5.35600233 
O 34.9452896 1.91263485 -5.22964859 
H 34.9309120 1.09203947 -5.71885586 
H 34.3298721 2.50611067 -5.68853760 
O 33.9397087 2.07589960 -2.68652439 
H 34.6153297 2.13265109 -2.01587176 
H 34.3999023 2.02415657 -3.54278922 
O 32.0920868 0.149908900 -3.64473271 
H 31.5288162 -0.183412760 -2.94851589 
H 32.6918640 0.777850449 -3.21691346 
15
substructure 5-mer 410 from 7-mer
O 32.3070183 4.24709272 -3.69066930 
H 31.3722973 4.00080538 -3.61893249 
H 32.8008804 3.59391427 -3.18181443 
O 29.7030010 3.28264499 -3.82171893 
H 28.8018818 3.51033521 -4.03440714 
H 29.9951630 2.66919875 -4.51685858 
O 30.8817787 1.63884985 -5.71033859 
H 31.3102760 1.04050446 -5.08096838 
H 31.5755882 2.22083306 -6.04071617 
O 34.9452896 1.91263485 -5.22964859 
H 34.9309120 1.09203947 -5.71885586 
H 34.3298721 2.50611067 -5.68853760 
O 33.9397087 2.07589960 -2.68652439 
H 34.6153297 2.13265109 -2.01587176 
H 34.3999023 2.02415657 -3.54278922 
15
substructure 5-mer 411 from 7-mer
O 32.3070183 4.24709272 -3.69066930 
H 31.3722973 4.00080538 -3.61893249 
H 32.8008804 3.59391427 -3.18181443 
O 29.7030010 3.28264499 -3.82171893 
H 28.8018818 3.51033521 -4.03440714 
H 29.9951630 2.66919875 -4.51685858 
O 30.8817787 1.63884985 -5.71033859 
H 31.3102760 1.04050446 -5.08096838 
H 31.5755882 2.22083306 -6.04071617 
O 34.9452896 1.91263485 -5.22964859 
H 34.9309120 1.09203947 -5.71885586 
H 34.3298721 2.50611067 -5.68853760 
O 32.0920868 0.149908900 -3.64473271 
H 31.5288162 -0.183412760 -2.94851589 
H 32.6918640 0.777850449 -3.21691346 
15
substructure 5-mer 412 from 7-mer
O 32.3070183 4.24709272 -3.69066930 
H 31.3722973 4.00080538 -3.61893249 
H 32.8008804 3.59391427 -3.18181443 
O 29.7030010 3.28264499 -3.82171893 
H 28.8018818 3.51033521 -4.03440714 
H 29.9951630 2.66919875 -4.51685858 
O 30.8817787 1.63884985 -5.71033859 
H 31.3102760 1.04050446 -5.08096838 
H 31.5755882 2.22083306 -6.04071617 
O 33.9397087 2.07589960 -2.68652439 
H 34.6153297 2.13265109 -2.01587176 
H 34.3999023 2.02415657 -3.54278922 
O 32.0920868 0.149908900 -3.64473271 
H 31.5288162 -0.183412760 -2.94851589 
H 32.6918640 0.777850449 -3.21691346 
15
substructure 5-mer 413 from 7-mer
O 32.3070183 4.24709272 -3.69066930 
H 31.3722973 4.00080538 -3.61893249 
H 32.8008804 3.59391427 -3.18181443 
O 29.7030010 3.28264499 -3.82171893 
H 28.8018818 3.51033521 -4.03440714 
H 29.9951630 2.66919875 -4.51685858 
O 34.9452896 1.91263485 -5.22964859 
H 34.9309120 1.09203947 -5.71885586 
H 34.3298721 2.50611067 -5.68853760 
O 33.9397087 2.07589960 -2.68652439 
H 34.6153297 2.13265109 -2.01587176 
H 34.3999023 2.02415657 -3.54278922 
O 32.0920868 0.149908900 -3.64473271 
H 31.5288162 -0.183412760 -2.94851589 
H 32.6918640 0.777850449 -3.21691346 
15
substructure 5-mer 414 from 7-mer
O 32.3070183 4.24709272 -3.69066930 
H 31.3722973 4.00080538 -3.61893249 
H 32.8008804 3.59391427 -3.18181443 
O 30.8817787 1.63884985 -5.71033859 
H 31.3102760 1.04050446 -5.08096838 
H 31.5755882 2.22083306 -6.04071617 
O 34.9452896 1.91263485 -5.22964859 
H 34.9309120 1.09203947 -5.71885586 
H 34.3298721 2.50611067 -5.68853760 
O 33.9397087 2.07589960 -2.68652439 
H 34.6153297 2.13265109 -2.01587176 
H 34.3999023 2.02415657 -3.54278922 
O 32.0920868 0.149908900 -3.64473271 
H 31.5288162 -0.183412760 -2.94851589 
H 32.6918640 0.777850449 -3.21691346 
15
substructure 5-mer 415 from 7-mer
O 32.9756851 3.59987736 -6.23841763 
H 32.9131775 4.33559513 -6.84104490 
H 32.7328529 3.93645430 -5.35600233 
O 29.7030010 3.28264499 -3.82171893 
H 28.8018818 3.51033521 -4.03440714 
H 29.9951630 2.66919875 -4.51685858 
O 30.8817787 1.63884985 -5.71033859 
H 31.3102760 1.04050446 -5.08096838 
H 31.5755882 2.22083306 -6.04071617 
O 34.9452896 1.91263485 -5.22964859 
H 34.9309120 1.09203947 -5.71885586 
H 34.3298721 2.50611067 -5.68853760 
O 33.9397087 2.07589960 -2.68652439 
H 34.6153297 2.13265109 -2.01587176 
H 34.3999023 2.02415657 -3.54278922 
15
substructure 5-mer 416 from 7-mer
O 32.9756851 3.59987736 -6.23841763 
H 32.9131775 4.33559513 -6.84104490 
H 32.7328529 3.93645430 -5.35600233 
O 29.7030010 3.28264499 -3.82171893 
H 28.8018818 3.51033521 -4.03440714 
H 29.9951630 2.66919875 -4.51685858 
O 30.8817787 1.63884985 -5.71033859 
H 31.3102760 1.04050446 -5.08096838 
H 31.5755882 2.22083306 -6.04071617 
O 34.9452896 1.91263485 -5.22964859 
H 34.9309120 1.09203947 -5.71885586 
H 34.3298721 2.50611067 -5.68853760 
O 32.0920868 0.149908900 -3.64473271 
H 31.5288162 -0.183412760 -2.94851589 
H 32.6918640 0.777850449 -3.21691346 
15
substructure 5-mer 417 from 7-mer
O 32.9756851 3.59987736 -6.23841763 
H 32.9131775 4.33559513 -6.84104490 
H 32.7328529 3.93645430 -5.35600233 
O 29.7030010 3.28264499 -3.82171893 
H 28.8018818 3.51033521 -4.03440714 
H 29.9951630 2.66919875 -4.51685858 
O 30.8817787 1.63884985 -5.71033859 
H 31.3102760 1.04050446 -5.08096838 
H 31.5755882 2.22083306 -6.04071617 
O 33.9397087 2.07589960 -2.68652439 
H 34.6153297 2.13265109 -2.01587176 
H 34.3999023 2.02415657 -3.54278922 
O 32.0920868 0.149908900 -3.64473271 
H 31.5288162 -0.183412760 -2.94851589 
H 32.6918640 0.777850449 -3.21691346 
15
substructure 5-mer 418 from 7-mer
O 32.9756851 3.59987736 -6.23841763 
H 32.9131775 4.33559513 -6.84104490 
H 32.7328529 3.93645430 -5.35600233 
O 29.7030010 3.28264499 -3.82171893 
H 28.8018818 3.51033521 -4.03440714 
H 29.9951630 2.66919875 -4.51685858 
O 34.9452896 1.91263485 -5.22964859 
H 34.9309120 1.09203947 -5.71885586 
H 34.3298721 2.50611067 -5.68853760 
O 33.9397087 2.07589960 -2.68652439 
H 34.6153297 2.13265109 -2.01587176 
H 34.3999023 2.02415657 -3.54278922 
O 32.0920868 0.149908900 -3.64473271 
H 31.5288162 -0.183412760 -2.94851589 
H 32.6918640 0.777850449 -3.21691346 
15
substructure 5-mer 419 from 7-mer
O 32.9756851 3.59987736 -6.23841763 
H 32.9131775 4.33559513 -6.84104490 
H 32.7328529 3.93645430 -5.35600233 
O 30.8817787 1.63884985 -5.71033859 
H 31.3102760 1.04050446 -5.08096838 
H 31.5755882 2.22083306 -6.04071617 
O 34.9452896 1.91263485 -5.22964859 
H 34.9309120 1.09203947 -5.71885586 
H 34.3298721 2.50611067 -5.68853760 
O 33.9397087 2.07589960 -2.68652439 
H 34.6153297 2.13265109 -2.01587176 
H 34.3999023 2.02415657 -3.54278922 
O 32.0920868 0.149908900 -3.64473271 
H 31.5288162 -0.183412760 -2.94851589 
H 32.6918640 0.777850449 -3.21691346 
15
substructure 5-mer 420 from 7-mer
O 29.7030010 3.28264499 -3.82171893 
H 28.8018818 3.51033521 -4.03440714 
H 29.9951630 2.66919875 -4.51685858 
O 30.8817787 1.63884985 -5.71033859 
H 31.3102760 1.04050446 -5.08096838 
H 31.5755882 2.22083306 -6.04071617 
O 34.9452896 1.91263485 -5.22964859 
H 34.9309120 1.09203947 -5.71885586 
H 34.3298721 2.50611067 -5.68853760 
O 33.9397087 2.07589960 -2.68652439 
H 34.6153297 2.13265109 -2.01587176 
H 34.3999023 2.02415657 -3.54278922 
O 32.0920868 0.149908900 -3.64473271 
H 31.5288162 -0.183412760 -2.94851589 
H 32.6918640 0.777850449 -3.21691346 
15
substructure 5-mer 421 from 7-mer
O 31.4167442 0.379273206 -2.29911256 
H 30.7583923 -4.69212718E-02 -1.75874043 
H 30.9365292 0.878538549 -2.98570776 
O 33.7009468 -6.90371990E-02 -3.90901828 
H 34.1632080 -0.887320757 -3.74356318 
H 32.9172821 -7.62272924E-02 -3.33618331 
O 33.3789711 2.46226001 -2.51055598 
H 32.6814194 1.91282070 -2.13037038 
H 33.8584709 1.84812403 -3.07853556 
O 33.0287552 3.54541063 -6.54395390 
H 32.8395081 4.20189476 -7.21081448 
H 32.6750221 3.89984107 -5.71467447 
O 31.9844227 4.28150702 -4.02261019 
H 32.5330925 3.70667958 -3.46100307 
H 31.8597813 5.09406948 -3.53946543 
15
substructure 5-mer 422 from 7-mer
O 31.4167442 0.379273206 -2.29911256 
H 30.7583923 -4.69212718E-02 -1.75874043 
H 30.9365292 0.878538549 -2.98570776 
O 33.7009468 -6.90371990E-02 -3.90901828 
H 34.1632080 -0.887320757 -3.74356318 
H 32.9172821 -7.62272924E-02 -3.33618331 
O 33.3789711 2.46226001 -2.51055598 
H 32.6814194 1.91282070 -2.13037038 
H 33.8584709 1.84812403 -3.07853556 
O 33.0287552 3.54541063 -6.54395390 
H 32.8395081 4.20189476 -7.21081448 
H 32.6750221 3.89984107 -5.71467447 
O 30.3535709 1.86742830 -4.29341984 
H 30.8417511 1.47478867 -5.03485298 
H 30.6832256 2.76972651 -4.22461462 
15
substructure 5-mer 423 from 7-mer
O 31.4167442 0.379273206 -2.29911256 
H 30.7583923 -4.69212718E-02 -1.75874043 
H 30.9365292 0.878538549 -2.98570776 
O 33.7009468 -6.90371990E-02 -3.90901828 
H 34.1632080 -0.887320757 -3.74356318 
H 32.9172821 -7.62272924E-02 -3.33618331 
O 33.3789711 2.46226001 -2.51055598 
H 32.6814194 1.91282070 -2.13037038 
H 33.8584709 1.84812403 -3.07853556 
O 33.0287552 3.54541063 -6.54395390 
H 32.8395081 4.20189476 -7.21081448 
H 32.6750221 3.89984107 -5.71467447 
O 32.1590118 0.895643175 -6.15873718 
H 32.7909241 0.513257802 -5.53855276 
H 32.5271683 1.75252318 -6.41764021 
15
substructure 5-mer 424 from 7-mer
O 31.4167442 0.379273206 -2.29911256 
H 30.7583923 -4.69212718E-02 -1.75874043 
H 30.9365292 0.878538549 -2.98570776 
O 33.7009468 -6.90371990E-02 -3.90901828 
H 34.1632080 -0.887320757 -3.74356318 
H 32.9172821 -7.62272924E-02 -3.33618331 
O 33.3789711 2.46226001 -2.51055598 
H 32.6814194 1.91282070 -2.13037038 
H 33.8584709 1.84812403 -3.07853556 
O 31.9844227 4.28150702 -4.02261019 
H 32.5330925 3.70667958 -3.46100307 
H 31.8597813 5.09406948 -3.53946543 
O 30.3535709 1.86742830 -4.29341984 
H 30.8417511 1.47478867 -5.03485298 
H 30.6832256 2.76972651 -4.22461462 
15
substructure 5-mer 425 from 7-mer
O 31.4167442 0.379273206 -2.29911256 
H 30.7583923 -4.69212718E-02 -1.75874043 
H 30.9365292 0.878538549 -2.98570776 
O 33.7009468 -6.90371990E-02 -3.90901828 
H 34.1632080 -0.887320757 -3.74356318 
H 32.9172821 -7.62272924E-02 -3.33618331 
O 33.3789711 2.46226001 -2.51055598 
H 32.6814194 1.91282070 -2.13037038 
H 33.8584709 1.84812403 -3.07853556 
O 31.9844227 4.28150702 -4.02261019 
H 32.5330925 3.70667958 -3.46100307 
H 31.8597813 5.09406948 -3.53946543 
O 32.1590118 0.895643175 -6.15873718 
H 32.7909241 0.513257802 -5.53855276 
H 32.5271683 1.75252318 -6.41764021 
15
substructure 5-mer 426 from 7-mer
O 31.4167442 0.379273206 -2.29911256 
H 30.7583923 -4.69212718E-02 -1.75874043 
H 30.9365292 0.878538549 -2.98570776 
O 33.7009468 -6.90371990E-02 -3.90901828 
H 34.1632080 -0.887320757 -3.74356318 
H 32.9172821 -7.62272924E-02 -3.33618331 
O 33.3789711 2.46226001 -2.51055598 
H 32.6814194 1.91282070 -2.13037038 
H 33.8584709 1.84812403 -3.07853556 
O 30.3535709 1.86742830 -4.29341984 
H 30.8417511 1.47478867 -5.03485298 
H 30.6832256 2.76972651 -4.22461462 
O 32.1590118 0.895643175 -6.15873718 
H 32.7909241 0.513257802 -5.53855276 
H 32.5271683 1.75252318 -6.41764021 
15
substructure 5-mer 427 from 7-mer
O 31.4167442 0.379273206 -2.29911256 
H 30.7583923 -4.69212718E-02 -1.75874043 
H 30.9365292 0.878538549 -2.98570776 
O 33.7009468 -6.90371990E-02 -3.90901828 
H 34.1632080 -0.887320757 -3.74356318 
H 32.9172821 -7.62272924E-02 -3.33618331 
O 33.0287552 3.54541063 -6.54395390 
H 32.8395081 4.20189476 -7.21081448 
H 32.6750221 3.89984107 -5.71467447 
O 31.9844227 4.28150702 -4.02261019 
H 32.5330925 3.70667958 -3.46100307 
H 31.8597813 5.09406948 -3.53946543 
O 30.3535709 1.86742830 -4.29341984 
H 30.8417511 1.47478867 -5.03485298 
H 30.6832256 2.76972651 -4.22461462 
15
substructure 5-mer 428 from 7-mer
O 31.4167442 0.379273206 -2.29911256 
H 30.7583923 -4.69212718E-02 -1.75874043 
H 30.9365292 0.878538549 -2.98570776 
O 33.7009468 -6.90371990E-02 -3.90901828 
H 34.1632080 -0.887320757 -3.74356318 
H 32.9172821 -7.62272924E-02 -3.33618331 
O 33.0287552 3.54541063 -6.54395390 
H 32.8395081 4.20189476 -7.21081448 
H 32.6750221 3.89984107 -5.71467447 
O 31.9844227 4.28150702 -4.02261019 
H 32.5330925 3.70667958 -3.46100307 
H 31.8597813 5.09406948 -3.53946543 
O 32.1590118 0.895643175 -6.15873718 
H 32.7909241 0.513257802 -5.53855276 
H 32.5271683 1.75252318 -6.41764021 
15
substructure 5-mer 429 from 7-mer
O 31.4167442 0.379273206 -2.29911256 
H 30.7583923 -4.69212718E-02 -1.75874043 
H 30.9365292 0.878538549 -2.98570776 
O 33.7009468 -6.90371990E-02 -3.90901828 
H 34.1632080 -0.887320757 -3.74356318 
H 32.9172821 -7.62272924E-02 -3.33618331 
O 33.0287552 3.54541063 -6.54395390 
H 32.8395081 4.20189476 -7.21081448 
H 32.6750221 3.89984107 -5.71467447 
O 30.3535709 1.86742830 -4.29341984 
H 30.8417511 1.47478867 -5.03485298 
H 30.6832256 2.76972651 -4.22461462 
O 32.1590118 0.895643175 -6.15873718 
H 32.7909241 0.513257802 -5.53855276 
H 32.5271683 1.75252318 -6.41764021 
15
substructure 5-mer 430 from 7-mer
O 31.4167442 0.379273206 -2.29911256 
H 30.7583923 -4.69212718E-02 -1.75874043 
H 30.9365292 0.878538549 -2.98570776 
O 33.7009468 -6.90371990E-02 -3.90901828 
H 34.1632080 -0.887320757 -3.74356318 
H 32.9172821 -7.62272924E-02 -3.33618331 
O 31.9844227 4.28150702 -4.02261019 
H 32.5330925 3.70667958 -3.46100307 
H 31.8597813 5.09406948 -3.53946543 
O 30.3535709 1.86742830 -4.29341984 
H 30.8417511 1.47478867 -5.03485298 
H 30.6832256 2.76972651 -4.22461462 
O 32.1590118 0.895643175 -6.15873718 
H 32.7909241 0.513257802 -5.53855276 
H 32.5271683 1.75252318 -6.41764021 
15
substructure 5-mer 431 from 7-mer
O 31.4167442 0.379273206 -2.29911256 
H 30.7583923 -4.69212718E-02 -1.75874043 
H 30.9365292 0.878538549 -2.98570776 
O 33.3789711 2.46226001 -2.51055598 
H 32.6814194 1.91282070 -2.13037038 
H 33.8584709 1.84812403 -3.07853556 
O 33.0287552 3.54541063 -6.54395390 
H 32.8395081 4.20189476 -7.21081448 
H 32.6750221 3.89984107 -5.71467447 
O 31.9844227 4.28150702 -4.02261019 
H 32.5330925 3.70667958 -3.46100307 
H 31.8597813 5.09406948 -3.53946543 
O 30.3535709 1.86742830 -4.29341984 
H 30.8417511 1.47478867 -5.03485298 
H 30.6832256 2.76972651 -4.22461462 
15
substructure 5-mer 432 from 7-mer
O 31.4167442 0.379273206 -2.29911256 
H 30.7583923 -4.69212718E-02 -1.75874043 
H 30.9365292 0.878538549 -2.98570776 
O 33.3789711 2.46226001 -2.51055598 
H 32.6814194 1.91282070 -2.13037038 
H 33.8584709 1.84812403 -3.07853556 
O 33.0287552 3.54541063 -6.54395390 
H 32.8395081 4.20189476 -7.21081448 
H 32.6750221 3.89984107 -5.71467447 
O 31.9844227 4.28150702 -4.02261019 
H 32.5330925 3.70667958 -3.46100307 
H 31.8597813 5.09406948 -3.53946543 
O 32.1590118 0.895643175 -6.15873718 
H 32.7909241 0.513257802 -5.53855276 
H 32.5271683 1.75252318 -6.41764021 
15
substructure 5-mer 433 from 7-mer
O 31.4167442 0.379273206 -2.29911256 
H 30.7583923 -4.69212718E-02 -1.75874043 
H 30.9365292 0.878538549 -2.98570776 
O 33.3789711 2.46226001 -2.51055598 
H 32.6814194 1.91282070 -2.13037038 
H 33.8584709 1.84812403 -3.07853556 
O 33.0287552 3.54541063 -6.54395390 
H 32.8395081 4.20189476 -7.21081448 
H 32.6750221 3.89984107 -5.71467447 
O 30.3535709 1.86742830 -4.29341984 
H 30.8417511 1.47478867 -5.03485298 
H 30.6832256 2.76972651 -4.22461462 
O 32.1590118 0.895643175 -6.15873718 
H 32.7909241 0.513257802 -5.53855276 
H 32.5271683 1.75252318 -6.41764021 
15
substructure 5-mer 434 from 7-mer
O 31.4167442 0.379273206 -2.29911256 
H 30.7583923 -4.69212718E-02 -1.75874043 
H 30.9365292 0.878538549 -2.98570776 
O 33.3789711 2.46226001 -2.51055598 
H 32.6814194 1.91282070 -2.13037038 
H 33.8584709 1.84812403 -3.07853556 
O 31.9844227 4.28150702 -4.02261019 
H 32.5330925 3.70667958 -3.46100307 
H 31.8597813 5.09406948 -3.53946543 
O 30.3535709 1.86742830 -4.29341984 
H 30.8417511 1.47478867 -5.03485298 
H 30.6832256 2.76972651 -4.22461462 
O 32.1590118 0.895643175 -6.15873718 
H 32.7909241 0.513257802 -5.53855276 
H 32.5271683 1.75252318 -6.41764021 
15
substructure 5-mer 435 from 7-mer
O 31.4167442 0.379273206 -2.29911256 
H 30.7583923 -4.69212718E-02 -1.75874043 
H 30.9365292 0.878538549 -2.98570776 
O 33.0287552 3.54541063 -6.54395390 
H 32.8395081 4.20189476 -7.21081448 
H 32.6750221 3.89984107 -5.71467447 
O 31.9844227 4.28150702 -4.02261019 
H 32.5330925 3.70667958 -3.46100307 
H 31.8597813 5.09406948 -3.53946543 
O 30.3535709 1.86742830 -4.29341984 
H 30.8417511 1.47478867 -5.03485298 
H 30.6832256 2.76972651 -4.22461462 
O 32.1590118 0.895643175 -6.15873718 
H 32.7909241 0.513257802 -5.53855276 
H 32.5271683 1.75252318 -6.41764021 
15
substructure 5-mer 436 from 7-mer
O 33.7009468 -6.90371990E-02 -3.90901828 
H 34.1632080 -0.887320757 -3.74356318 
H 32.9172821 -7.62272924E-02 -3.33618331 
O 33.3789711 2.46226001 -2.51055598 
H 32.6814194 1.91282070 -2.13037038 
H 33.8584709 1.84812403 -3.07853556 
O 33.0287552 3.54541063 -6.54395390 
H 32.8395081 4.20189476 -7.21081448 
H 32.6750221 3.89984107 -5.71467447 
O 31.9844227 4.28150702 -4.02261019 
H 32.5330925 3.70667958 -3.46100307 
H 31.8597813 5.09406948 -3.53946543 
O 30.3535709 1.86742830 -4.29341984 
H 30.8417511 1.47478867 -5.03485298 
H 30.6832256 2.76972651 -4.22461462 
15
substructure 5-mer 437 from 7-mer
O 33.7009468 -6.90371990E-02 -3.90901828 
H 34.1632080 -0.887320757 -3.74356318 
H 32.9172821 -7.62272924E-02 -3.33618331 
O 33.3789711 2.46226001 -2.51055598 
H 32.6814194 1.91282070 -2.13037038 
H 33.8584709 1.84812403 -3.07853556 
O 33.0287552 3.54541063 -6.54395390 
H 32.8395081 4.20189476 -7.21081448 
H 32.6750221 3.89984107 -5.71467447 
O 31.9844227 4.28150702 -4.02261019 
H 32.5330925 3.70667958 -3.46100307 
H 31.8597813 5.09406948 -3.53946543 
O 32.1590118 0.895643175 -6.15873718 
H 32.7909241 0.513257802 -5.53855276 
H 32.5271683 1.75252318 -6.41764021 
15
substructure 5-mer 438 from 7-mer
O 33.7009468 -6.90371990E-02 -3.90901828 
H 34.1632080 -0.887320757 -3.74356318 
H 32.9172821 -7.62272924E-02 -3.33618331 
O 33.3789711 2.46226001 -2.51055598 
H 32.6814194 1.91282070 -2.13037038 
H 33.8584709 1.84812403 -3.07853556 
O 33.0287552 3.54541063 -6.54395390 
H 32.8395081 4.20189476 -7.21081448 
H 32.6750221 3.89984107 -5.71467447 
O 30.3535709 1.86742830 -4.29341984 
H 30.8417511 1.47478867 -5.03485298 
H 30.6832256 2.76972651 -4.22461462 
O 32.1590118 0.895643175 -6.15873718 
H 32.7909241 0.513257802 -5.53855276 
H 32.5271683 1.75252318 -6.41764021 
15
substructure 5-mer 439 from 7-mer
O 33.7009468 -6.90371990E-02 -3.90901828 
H 34.1632080 -0.887320757 -3.74356318 
H 32.9172821 -7.62272924E-02 -3.33618331 
O 33.3789711 2.46226001 -2.51055598 
H 32.6814194 1.91282070 -2.13037038 
H 33.8584709 1.84812403 -3.07853556 
O 31.9844227 4.28150702 -4.02261019 
H 32.5330925 3.70667958 -3.46100307 
H 31.8597813 5.09406948 -3.53946543 
O 30.3535709 1.86742830 -4.29341984 
H 30.8417511 1.47478867 -5.03485298 
H 30.6832256 2.76972651 -4.22461462 
O 32.1590118 0.895643175 -6.15873718 
H 32.7909241 0.513257802 -5.53855276 
H 32.5271683 1.75252318 -6.41764021 
15
substructure 5-mer 440 from 7-mer
O 33.7009468 -6.90371990E-02 -3.90901828 
H 34.1632080 -0.887320757 -3.74356318 
H 32.9172821 -7.62272924E-02 -3.33618331 
O 33.0287552 3.54541063 -6.54395390 
H 32.8395081 4.20189476 -7.21081448 
H 32.6750221 3.89984107 -5.71467447 
O 31.9844227 4.28150702 -4.02261019 
H 32.5330925 3.70667958 -3.46100307 
H 31.8597813 5.09406948 -3.53946543 
O 30.3535709 1.86742830 -4.29341984 
H 30.8417511 1.47478867 -5.03485298 
H 30.6832256 2.76972651 -4.22461462 
O 32.1590118 0.895643175 -6.15873718 
H 32.7909241 0.513257802 -5.53855276 
H 32.5271683 1.75252318 -6.41764021 
15
substructure 5-mer 441 from 7-mer
O 33.3789711 2.46226001 -2.51055598 
H 32.6814194 1.91282070 -2.13037038 
H 33.8584709 1.84812403 -3.07853556 
O 33.0287552 3.54541063 -6.54395390 
H 32.8395081 4.20189476 -7.21081448 
H 32.6750221 3.89984107 -5.71467447 
O 31.9844227 4.28150702 -4.02261019 
H 32.5330925 3.70667958 -3.46100307 
H 31.8597813 5.09406948 -3.53946543 
O 30.3535709 1.86742830 -4.29341984 
H 30.8417511 1.47478867 -5.03485298 
H 30.6832256 2.76972651 -4.22461462 
O 32.1590118 0.895643175 -6.15873718 
H 32.7909241 0.513257802 -5.53855276 
H 32.5271683 1.75252318 -6.41764021 
15
substructure 5-mer 442 from 7-mer
O 28.9062672 2.60572910 -3.08436823 
H 28.0411911 2.56345916 -2.68760943 
H 29.5442772 2.55594087 -2.35050941 
O 30.9184265 2.58385158 -1.25294650 
H 31.5277805 1.84371400 -1.35754037 
H 31.3955727 3.35303855 -1.59789538 
O 32.9538307 0.702503860 -1.96328413 
H 33.6180115 1.35000730 -2.24570465 
H 33.4351082 -1.08415000E-02 -1.55030859 
O 34.5464783 2.63404512 -3.29056048 
H 35.4076691 2.77676439 -3.67346573 
H 33.9778671 2.28020287 -3.99845695 
O 32.6228409 1.48734725 -4.84053326 
H 31.9212132 2.14360571 -4.95700741 
H 32.3770332 0.969545782 -4.06684351 
15
substructure 5-mer 443 from 7-mer
O 28.9062672 2.60572910 -3.08436823 
H 28.0411911 2.56345916 -2.68760943 
H 29.5442772 2.55594087 -2.35050941 
O 30.9184265 2.58385158 -1.25294650 
H 31.5277805 1.84371400 -1.35754037 
H 31.3955727 3.35303855 -1.59789538 
O 32.9538307 0.702503860 -1.96328413 
H 33.6180115 1.35000730 -2.24570465 
H 33.4351082 -1.08415000E-02 -1.55030859 
O 34.5464783 2.63404512 -3.29056048 
H 35.4076691 2.77676439 -3.67346573 
H 33.9778671 2.28020287 -3.99845695 
O 32.3628082 4.48409700 -2.73637509 
H 33.1943245 4.01579189 -2.87512445 
H 31.8333492 4.30929995 -3.52481651 
15
substructure 5-mer 444 from 7-mer
O 28.9062672 2.60572910 -3.08436823 
H 28.0411911 2.56345916 -2.68760943 
H 29.5442772 2.55594087 -2.35050941 
O 30.9184265 2.58385158 -1.25294650 
H 31.5277805 1.84371400 -1.35754037 
H 31.3955727 3.35303855 -1.59789538 
O 32.9538307 0.702503860 -1.96328413 
H 33.6180115 1.35000730 -2.24570465 
H 33.4351082 -1.08415000E-02 -1.55030859 
O 34.5464783 2.63404512 -3.29056048 
H 35.4076691 2.77676439 -3.67346573 
H 33.9778671 2.28020287 -3.99845695 
O 30.6817589 3.53512669 -4.91720438 
H 29.9790287 3.21412873 -4.32458401 
H 30.2518539 4.02419662 -5.61349916 
15
substructure 5-mer 445 from 7-mer
O 28.9062672 2.60572910 -3.08436823 
H 28.0411911 2.56345916 -2.68760943 
H 29.5442772 2.55594087 -2.35050941 
O 30.9184265 2.58385158 -1.25294650 
H 31.5277805 1.84371400 -1.35754037 
H 31.3955727 3.35303855 -1.59789538 
O 32.9538307 0.702503860 -1.96328413 
H 33.6180115 1.35000730 -2.24570465 
H 33.4351082 -1.08415000E-02 -1.55030859 
O 32.6228409 1.48734725 -4.84053326 
H 31.9212132 2.14360571 -4.95700741 
H 32.3770332 0.969545782 -4.06684351 
O 32.3628082 4.48409700 -2.73637509 
H 33.1943245 4.01579189 -2.87512445 
H 31.8333492 4.30929995 -3.52481651 
15
substructure 5-mer 446 from 7-mer
O 28.9062672 2.60572910 -3.08436823 
H 28.0411911 2.56345916 -2.68760943 
H 29.5442772 2.55594087 -2.35050941 
O 30.9184265 2.58385158 -1.25294650 
H 31.5277805 1.84371400 -1.35754037 
H 31.3955727 3.35303855 -1.59789538 
O 32.9538307 0.702503860 -1.96328413 
H 33.6180115 1.35000730 -2.24570465 
H 33.4351082 -1.08415000E-02 -1.55030859 
O 32.6228409 1.48734725 -4.84053326 
H 31.9212132 2.14360571 -4.95700741 
H 32.3770332 0.969545782 -4.06684351 
O 30.6817589 3.53512669 -4.91720438 
H 29.9790287 3.21412873 -4.32458401 
H 30.2518539 4.02419662 -5.61349916 
15
substructure 5-mer 447 from 7-mer
O 28.9062672 2.60572910 -3.08436823 
H 28.0411911 2.56345916 -2.68760943 
H 29.5442772 2.55594087 -2.35050941 
O 30.9184265 2.58385158 -1.25294650 
H 31.5277805 1.84371400 -1.35754037 
H 31.3955727 3.35303855 -1.59789538 
O 32.9538307 0.702503860 -1.96328413 
H 33.6180115 1.35000730 -2.24570465 
H 33.4351082 -1.08415000E-02 -1.55030859 
O 32.3628082 4.48409700 -2.73637509 
H 33.1943245 4.01579189 -2.87512445 
H 31.8333492 4.30929995 -3.52481651 
O 30.6817589 3.53512669 -4.91720438 
H 29.9790287 3.21412873 -4.32458401 
H 30.2518539 4.02419662 -5.61349916 
15
substructure 5-mer 448 from 7-mer
O 28.9062672 2.60572910 -3.08436823 
H 28.0411911 2.56345916 -2.68760943 
H 29.5442772 2.55594087 -2.35050941 
O 30.9184265 2.58385158 -1.25294650 
H 31.5277805 1.84371400 -1.35754037 
H 31.3955727 3.35303855 -1.59789538 
O 34.5464783 2.63404512 -3.29056048 
H 35.4076691 2.77676439 -3.67346573 
H 33.9778671 2.28020287 -3.99845695 
O 32.6228409 1.48734725 -4.84053326 
H 31.9212132 2.14360571 -4.95700741 
H 32.3770332 0.969545782 -4.06684351 
O 32.3628082 4.48409700 -2.73637509 
H 33.1943245 4.01579189 -2.87512445 
H 31.8333492 4.30929995 -3.52481651 
15
substructure 5-mer 449 from 7-mer
O 28.9062672 2.60572910 -3.08436823 
H 28.0411911 2.56345916 -2.68760943 
H 29.5442772 2.55594087 -2.35050941 
O 30.9184265 2.58385158 -1.25294650 
H 31.5277805 1.84371400 -1.35754037 
H 31.3955727 3.35303855 -1.59789538 
O 34.5464783 2.63404512 -3.29056048 
H 35.4076691 2.77676439 -3.67346573 
H 33.9778671 2.28020287 -3.99845695 
O 32.6228409 1.48734725 -4.84053326 
H 31.9212132 2.14360571 -4.95700741 
H 32.3770332 0.969545782 -4.06684351 
O 30.6817589 3.53512669 -4.91720438 
H 29.9790287 3.21412873 -4.32458401 
H 30.2518539 4.02419662 -5.61349916 
15
substructure 5-mer 450 from 7-mer
O 28.9062672 2.60572910 -3.08436823 
H 28.0411911 2.56345916 -2.68760943 
H 29.5442772 2.55594087 -2.35050941 
O 30.9184265 2.58385158 -1.25294650 
H 31.5277805 1.84371400 -1.35754037 
H 31.3955727 3.35303855 -1.59789538 
O 34.5464783 2.63404512 -3.29056048 
H 35.4076691 2.77676439 -3.67346573 
H 33.9778671 2.28020287 -3.99845695 
O 32.3628082 4.48409700 -2.73637509 
H 33.1943245 4.01579189 -2.87512445 
H 31.8333492 4.30929995 -3.52481651 
O 30.6817589 3.53512669 -4.91720438 
H 29.9790287 3.21412873 -4.32458401 
H 30.2518539 4.02419662 -5.61349916 
15
substructure 5-mer 451 from 7-mer
O 28.9062672 2.60572910 -3.08436823 
H 28.0411911 2.56345916 -2.68760943 
H 29.5442772 2.55594087 -2.35050941 
O 30.9184265 2.58385158 -1.25294650 
H 31.5277805 1.84371400 -1.35754037 
H 31.3955727 3.35303855 -1.59789538 
O 32.6228409 1.48734725 -4.84053326 
H 31.9212132 2.14360571 -4.95700741 
H 32.3770332 0.969545782 -4.06684351 
O 32.3628082 4.48409700 -2.73637509 
H 33.1943245 4.01579189 -2.87512445 
H 31.8333492 4.30929995 -3.52481651 
O 30.6817589 3.53512669 -4.91720438 
H 29.9790287 3.21412873 -4.32458401 
H 30.2518539 4.02419662 -5.61349916 
15
substructure 5-mer 452 from 7-mer
O 28.9062672 2.60572910 -3.08436823 
H 28.0411911 2.56345916 -2.68760943 
H 29.5442772 2.55594087 -2.35050941 
O 32.9538307 0.702503860 -1.96328413 
H 33.6180115 1.35000730 -2.24570465 
H 33.4351082 -1.08415000E-02 -1.55030859 
O 34.5464783 2.63404512 -3.29056048 
H 35.4076691 2.77676439 -3.67346573 
H 33.9778671 2.28020287 -3.99845695 
O 32.6228409 1.48734725 -4.84053326 
H 31.9212132 2.14360571 -4.95700741 
H 32.3770332 0.969545782 -4.06684351 
O 32.3628082 4.48409700 -2.73637509 
H 33.1943245 4.01579189 -2.87512445 
H 31.8333492 4.30929995 -3.52481651 
15
substructure 5-mer 453 from 7-mer
O 28.9062672 2.60572910 -3.08436823 
H 28.0411911 2.56345916 -2.68760943 
H 29.5442772 2.55594087 -2.35050941 
O 32.9538307 0.702503860 -1.96328413 
H 33.6180115 1.35000730 -2.24570465 
H 33.4351082 -1.08415000E-02 -1.55030859 
O 34.5464783 2.63404512 -3.29056048 
H 35.4076691 2.77676439 -3.67346573 
H 33.9778671 2.28020287 -3.99845695 
O 32.6228409 1.48734725 -4.84053326 
H 31.9212132 2.14360571 -4.95700741 
H 32.3770332 0.969545782 -4.06684351 
O 30.6817589 3.53512669 -4.91720438 
H 29.9790287 3.21412873 -4.32458401 
H 30.2518539 4.02419662 -5.61349916 
15
substructure 5-mer 454 from 7-mer
O 28.9062672 2.60572910 -3.08436823 
H 28.0411911 2.56345916 -2.68760943 
H 29.5442772 2.55594087 -2.35050941 
O 32.9538307 0.702503860 -1.96328413 
H 33.6180115 1.35000730 -2.24570465 
H 33.4351082 -1.08415000E-02 -1.55030859 
O 34.5464783 2.63404512 -3.29056048 
H 35.4076691 2.77676439 -3.67346573 
H 33.9778671 2.28020287 -3.99845695 
O 32.3628082 4.48409700 -2.73637509 
H 33.1943245 4.01579189 -2.87512445 
H 31.8333492 4.30929995 -3.52481651 
O 30.6817589 3.53512669 -4.91720438 
H 29.9790287 3.21412873 -4.32458401 
H 30.2518539 4.02419662 -5.61349916 
15
substructure 5-mer 455 from 7-mer
O 28.9062672 2.60572910 -3.08436823 
H 28.0411911 2.56345916 -2.68760943 
H 29.5442772 2.55594087 -2.35050941 
O 32.9538307 0.702503860 -1.96328413 
H 33.6180115 1.35000730 -2.24570465 
H 33.4351082 -1.08415000E-02 -1.55030859 
O 32.6228409 1.48734725 -4.84053326 
H 31.9212132 2.14360571 -4.95700741 
H 32.3770332 0.969545782 -4.06684351 
O 32.3628082 4.48409700 -2.73637509 
H 33.1943245 4.01579189 -2.87512445 
H 31.8333492 4.30929995 -3.52481651 
O 30.6817589 3.53512669 -4.91720438 
H 29.9790287 3.21412873 -4.32458401 
H 30.2518539 4.02419662 -5.61349916 
15
substructure 5-mer 456 from 7-mer
O 28.9062672 2.60572910 -3.08436823 
H 28.0411911 2.56345916 -2.68760943 
H 29.5442772 2.55594087 -2.35050941 
O 34.5464783 2.63404512 -3.29056048 
H 35.4076691 2.77676439 -3.67346573 
H 33.9778671 2.28020287 -3.99845695 
O 32.6228409 1.48734725 -4.84053326 
H 31.9212132 2.14360571 -4.95700741 
H 32.3770332 0.969545782 -4.06684351 
O 32.3628082 4.48409700 -2.73637509 
H 33.1943245 4.01579189 -2.87512445 
H 31.8333492 4.30929995 -3.52481651 
O 30.6817589 3.53512669 -4.91720438 
H 29.9790287 3.21412873 -4.32458401 
H 30.2518539 4.02419662 -5.61349916 
15
substructure 5-mer 457 from 7-mer
O 30.9184265 2.58385158 -1.25294650 
H 31.5277805 1.84371400 -1.35754037 
H 31.3955727 3.35303855 -1.59789538 
O 32.9538307 0.702503860 -1.96328413 
H 33.6180115 1.35000730 -2.24570465 
H 33.4351082 -1.08415000E-02 -1.55030859 
O 34.5464783 2.63404512 -3.29056048 
H 35.4076691 2.77676439 -3.67346573 
H 33.9778671 2.28020287 -3.99845695 
O 32.6228409 1.48734725 -4.84053326 
H 31.9212132 2.14360571 -4.95700741 
H 32.3770332 0.969545782 -4.06684351 
O 32.3628082 4.48409700 -2.73637509 
H 33.1943245 4.01579189 -2.87512445 
H 31.8333492 4.30929995 -3.52481651 
15
substructure 5-mer 458 from 7-mer
O 30.9184265 2.58385158 -1.25294650 
H 31.5277805 1.84371400 -1.35754037 
H 31.3955727 3.35303855 -1.59789538 
O 32.9538307 0.702503860 -1.96328413 
H 33.6180115 1.35000730 -2.24570465 
H 33.4351082 -1.08415000E-02 -1.55030859 
O 34.5464783 2.63404512 -3.29056048 
H 35.4076691 2.77676439 -3.67346573 
H 33.9778671 2.28020287 -3.99845695 
O 32.6228409 1.48734725 -4.84053326 
H 31.9212132 2.14360571 -4.95700741 
H 32.3770332 0.969545782 -4.06684351 
O 30.6817589 3.53512669 -4.91720438 
H 29.9790287 3.21412873 -4.32458401 
H 30.2518539 4.02419662 -5.61349916 
15
substructure 5-mer 459 from 7-mer
O 30.9184265 2.58385158 -1.25294650 
H 31.5277805 1.84371400 -1.35754037 
H 31.3955727 3.35303855 -1.59789538 
O 32.9538307 0.702503860 -1.96328413 
H 33.6180115 1.35000730 -2.24570465 
H 33.4351082 -1.08415000E-02 -1.55030859 
O 34.5464783 2.63404512 -3.29056048 
H 35.4076691 2.77676439 -3.67346573 
H 33.9778671 2.28020287 -3.99845695 
O 32.3628082 4.48409700 -2.73637509 
H 33.1943245 4.01579189 -2.87512445 
H 31.8333492 4.30929995 -3.52481651 
O 30.6817589 3.53512669 -4.91720438 
H 29.9790287 3.21412873 -4.32458401 
H 30.2518539 4.02419662 -5.61349916 
15
substructure 5-mer 460 from 7-mer
O 30.9184265 2.58385158 -1.25294650 
H 31.5277805 1.84371400 -1.35754037 
H 31.3955727 3.35303855 -1.59789538 
O 32.9538307 0.702503860 -1.96328413 
H 33.6180115 1.35000730 -2.24570465 
H 33.4351082 -1.08415000E-02 -1.55030859 
O 32.6228409 1.48734725 -4.84053326 
H 31.9212132 2.14360571 -4.95700741 
H 32.3770332 0.969545782 -4.06684351 
O 32.3628082 4.48409700 -2.73637509 
H 33.1943245 4.01579189 -2.87512445 
H 31.8333492 4.30929995 -3.52481651 
O 30.6817589 3.53512669 -4.91720438 
H 29.9790287 3.21412873 -4.32458401 
H 30.2518539 4.02419662 -5.61349916 
15
substructure 5-mer 461 from 7-mer
O 30.9184265 2.58385158 -1.25294650 
H 31.5277805 1.84371400 -1.35754037 
H 31.3955727 3.35303855 -1.59789538 
O 34.5464783 2.63404512 -3.29056048 
H 35.4076691 2.77676439 -3.67346573 
H 33.9778671 2.28020287 -3.99845695 
O 32.6228409 1.48734725 -4.84053326 
H 31.9212132 2.14360571 -4.95700741 
H 32.3770332 0.969545782 -4.06684351 
O 32.3628082 4.48409700 -2.73637509 
H 33.1943245 4.01579189 -2.87512445 
H 31.8333492 4.30929995 -3.52481651 
O 30.6817589 3.53512669 -4.91720438 
H 29.9790287 3.21412873 -4.32458401 
H 30.2518539 4.02419662 -5.61349916 
15
substructure 5-mer 462 from 7-mer
O 32.9538307 0.702503860 -1.96328413 
H 33.6180115 1.35000730 -2.24570465 
H 33.4351082 -1.08415000E-02 -1.55030859 
O 34.5464783 2.63404512 -3.29056048 
H 35.4076691 2.77676439 -3.67346573 
H 33.9778671 2.28020287 -3.99845695 
O 32.6228409 1.48734725 -4.84053326 
H 31.9212132 2.14360571 -4.95700741 
H 32.3770332 0.969545782 -4.06684351 
O 32.3628082 4.48409700 -2.73637509 
H 33.1943245 4.01579189 -2.87512445 
H 31.8333492 4.30929995 -3.52481651 
O 30.6817589 3.53512669 -4.91720438 
H 29.9790287 3.21412873 -4.32458401 
H 30.2518539 4.02419662 -5.61349916 
15
substructure 5-mer 463 from 7-mer
O 35.4462166 1.30129158 -3.44016099 
H 35.4074860 2.17422104 -3.03820634 
H 34.8825188 1.38578093 -4.21932697 
O 33.6955681 -6.16948418E-02 -1.67954063 
H 33.1889915 0.726294100 -1.45001054 
H 34.4120216 0.259031445 -2.24460745 
O 31.3471165 1.29806793 -4.00639772 
H 31.4370117 0.340927243 -3.88145590 
H 31.4443893 1.68423212 -3.12813997 
O 32.2475967 2.45726371 -1.50623119 
H 32.8722153 3.04341459 -1.96215546 
H 31.8630409 2.96642923 -0.796870232 
O 33.4673080 2.34347796 -5.30381680 
H 33.3713074 2.30444145 -6.25066280 
H 32.6667137 1.93816447 -4.92256689 
15
substructure 5-mer 464 from 7-mer
O 35.4462166 1.30129158 -3.44016099 
H 35.4074860 2.17422104 -3.03820634 
H 34.8825188 1.38578093 -4.21932697 
O 33.6955681 -6.16948418E-02 -1.67954063 
H 33.1889915 0.726294100 -1.45001054 
H 34.4120216 0.259031445 -2.24460745 
O 31.3471165 1.29806793 -4.00639772 
H 31.4370117 0.340927243 -3.88145590 
H 31.4443893 1.68423212 -3.12813997 
O 32.2475967 2.45726371 -1.50623119 
H 32.8722153 3.04341459 -1.96215546 
H 31.8630409 2.96642923 -0.796870232 
O 34.0307236 3.92485857 -3.08341122 
H 33.8471375 3.47888947 -3.92754483 
H 34.3181458 4.80798340 -3.30061936 
15
substructure 5-mer 465 from 7-mer
O 35.4462166 1.30129158 -3.44016099 
H 35.4074860 2.17422104 -3.03820634 
H 34.8825188 1.38578093 -4.21932697 
O 33.6955681 -6.16948418E-02 -1.67954063 
H 33.1889915 0.726294100 -1.45001054 
H 34.4120216 0.259031445 -2.24460745 
O 31.3471165 1.29806793 -4.00639772 
H 31.4370117 0.340927243 -3.88145590 
H 31.4443893 1.68423212 -3.12813997 
O 32.2475967 2.45726371 -1.50623119 
H 32.8722153 3.04341459 -1.96215546 
H 31.8630409 2.96642923 -0.796870232 
O 31.9256840 -1.32875943 -3.37056851 
H 31.7113094 -2.21474862 -3.09248471 
H 32.5857582 -1.00099266 -2.73607969 
15
substructure 5-mer 466 from 7-mer
O 35.4462166 1.30129158 -3.44016099 
H 35.4074860 2.17422104 -3.03820634 
H 34.8825188 1.38578093 -4.21932697 
O 33.6955681 -6.16948418E-02 -1.67954063 
H 33.1889915 0.726294100 -1.45001054 
H 34.4120216 0.259031445 -2.24460745 
O 31.3471165 1.29806793 -4.00639772 
H 31.4370117 0.340927243 -3.88145590 
H 31.4443893 1.68423212 -3.12813997 
O 33.4673080 2.34347796 -5.30381680 
H 33.3713074 2.30444145 -6.25066280 
H 32.6667137 1.93816447 -4.92256689 
O 34.0307236 3.92485857 -3.08341122 
H 33.8471375 3.47888947 -3.92754483 
H 34.3181458 4.80798340 -3.30061936 
15
substructure 5-mer 467 from 7-mer
O 35.4462166 1.30129158 -3.44016099 
H 35.4074860 2.17422104 -3.03820634 
H 34.8825188 1.38578093 -4.21932697 
O 33.6955681 -6.16948418E-02 -1.67954063 
H 33.1889915 0.726294100 -1.45001054 
H 34.4120216 0.259031445 -2.24460745 
O 31.3471165 1.29806793 -4.00639772 
H 31.4370117 0.340927243 -3.88145590 
H 31.4443893 1.68423212 -3.12813997 
O 33.4673080 2.34347796 -5.30381680 
H 33.3713074 2.30444145 -6.25066280 
H 32.6667137 1.93816447 -4.92256689 
O 31.9256840 -1.32875943 -3.37056851 
H 31.7113094 -2.21474862 -3.09248471 
H 32.5857582 -1.00099266 -2.73607969 
15
substructure 5-mer 468 from 7-mer
O 35.4462166 1.30129158 -3.44016099 
H 35.4074860 2.17422104 -3.03820634 
H 34.8825188 1.38578093 -4.21932697 
O 33.6955681 -6.16948418E-02 -1.67954063 
H 33.1889915 0.726294100 -1.45001054 
H 34.4120216 0.259031445 -2.24460745 
O 31.3471165 1.29806793 -4.00639772 
H 31.4370117 0.340927243 -3.88145590 
H 31.4443893 1.68423212 -3.12813997 
O 34.0307236 3.92485857 -3.08341122 
H 33.8471375 3.47888947 -3.92754483 
H 34.3181458 4.80798340 -3.30061936 
O 31.9256840 -1.32875943 -3.37056851 
H 31.7113094 -2.21474862 -3.09248471 
H 32.5857582 -1.00099266 -2.73607969 
15
substructure 5-mer 469 from 7-mer
O 35.4462166 1.30129158 -3.44016099 
H 35.4074860 2.17422104 -3.03820634 
H 34.8825188 1.38578093 -4.21932697 
O 33.6955681 -6.16948418E-02 -1.67954063 
H 33.1889915 0.726294100 -1.45001054 
H 34.4120216 0.259031445 -2.24460745 
O 32.2475967 2.45726371 -1.50623119 
H 32.8722153 3.04341459 -1.96215546 
H 31.8630409 2.96642923 -0.796870232 
O 33.4673080 2.34347796 -5.30381680 
H 33.3713074 2.30444145 -6.25066280 
H 32.6667137 1.93816447 -4.92256689 
O 34.0307236 3.92485857 -3.08341122 
H 33.8471375 3.47888947 -3.92754483 
H 34.3181458 4.80798340 -3.30061936 
15
substructure 5-mer 470 from 7-mer
O 35.4462166 1.30129158 -3.44016099 
H 35.4074860 2.17422104 -3.03820634 
H 34.8825188 1.38578093 -4.21932697 
O 33.6955681 -6.16948418E-02 -1.67954063 
H 33.1889915 0.726294100 -1.45001054 
H 34.4120216 0.259031445 -2.24460745 
O 32.2475967 2.45726371 -1.50623119 
H 32.8722153 3.04341459 -1.96215546 
H 31.8630409 2.96642923 -0.796870232 
O 33.4673080 2.34347796 -5.30381680 
H 33.3713074 2.30444145 -6.25066280 
H 32.6667137 1.93816447 -4.92256689 
O 31.9256840 -1.32875943 -3.37056851 
H 31.7113094 -2.21474862 -3.09248471 
H 32.5857582 -1.00099266 -2.73607969 
15
substructure 5-mer 471 from 7-mer
O 35.4462166 1.30129158 -3.44016099 
H 35.4074860 2.17422104 -3.03820634 
H 34.8825188 1.38578093 -4.21932697 
O 33.6955681 -6.16948418E-02 -1.67954063 
H 33.1889915 0.726294100 -1.45001054 
H 34.4120216 0.259031445 -2.24460745 
O 32.2475967 2.45726371 -1.50623119 
H 32.8722153 3.04341459 -1.96215546 
H 31.8630409 2.96642923 -0.796870232 
O 34.0307236 3.92485857 -3.08341122 
H 33.8471375 3.47888947 -3.92754483 
H 34.3181458 4.80798340 -3.30061936 
O 31.9256840 -1.32875943 -3.37056851 
H 31.7113094 -2.21474862 -3.09248471 
H 32.5857582 -1.00099266 -2.73607969 
15
substructure 5-mer 472 from 7-mer
O 35.4462166 1.30129158 -3.44016099 
H 35.4074860 2.17422104 -3.03820634 
H 34.8825188 1.38578093 -4.21932697 
O 33.6955681 -6.16948418E-02 -1.67954063 
H 33.1889915 0.726294100 -1.45001054 
H 34.4120216 0.259031445 -2.24460745 
O 33.4673080 2.34347796 -5.30381680 
H 33.3713074 2.30444145 -6.25066280 
H 32.6667137 1.93816447 -4.92256689 
O 34.0307236 3.92485857 -3.08341122 
H 33.8471375 3.47888947 -3.92754483 
H 34.3181458 4.80798340 -3.30061936 
O 31.9256840 -1.32875943 -3.37056851 
H 31.7113094 -2.21474862 -3.09248471 
H 32.5857582 -1.00099266 -2.73607969 
15
substructure 5-mer 473 from 7-mer
O 35.4462166 1.30129158 -3.44016099 
H 35.4074860 2.17422104 -3.03820634 
H 34.8825188 1.38578093 -4.21932697 
O 31.3471165 1.29806793 -4.00639772 
H 31.4370117 0.340927243 -3.88145590 
H 31.4443893 1.68423212 -3.12813997 
O 32.2475967 2.45726371 -1.50623119 
H 32.8722153 3.04341459 -1.96215546 
H 31.8630409 2.96642923 -0.796870232 
O 33.4673080 2.34347796 -5.30381680 
H 33.3713074 2.30444145 -6.25066280 
H 32.6667137 1.93816447 -4.92256689 
O 34.0307236 3.92485857 -3.08341122 
H 33.8471375 3.47888947 -3.92754483 
H 34.3181458 4.80798340 -3.30061936 
15
substructure 5-mer 474 from 7-mer
O 35.4462166 1.30129158 -3.44016099 
H 35.4074860 2.17422104 -3.03820634 
H 34.8825188 1.38578093 -4.21932697 
O 31.3471165 1.29806793 -4.00639772 
H 31.4370117 0.340927243 -3.88145590 
H 31.4443893 1.68423212 -3.12813997 
O 32.2475967 2.45726371 -1.50623119 
H 32.8722153 3.04341459 -1.96215546 
H 31.8630409 2.96642923 -0.796870232 
O 33.4673080 2.34347796 -5.30381680 
H 33.3713074 2.30444145 -6.25066280 
H 32.6667137 1.93816447 -4.92256689 
O 31.9256840 -1.32875943 -3.37056851 
H 31.7113094 -2.21474862 -3.09248471 
H 32.5857582 -1.00099266 -2.73607969 
15
substructure 5-mer 475 from 7-mer
O 35.4462166 1.30129158 -3.44016099 
H 35.4074860 2.17422104 -3.03820634 
H 34.8825188 1.38578093 -4.21932697 
O 31.3471165 1.29806793 -4.00639772 
H 31.4370117 0.340927243 -3.88145590 
H 31.4443893 1.68423212 -3.12813997 
O 32.2475967 2.45726371 -1.50623119 
H 32.8722153 3.04341459 -1.96215546 
H 31.8630409 2.96642923 -0.796870232 
O 34.0307236 3.92485857 -3.08341122 
H 33.8471375 3.47888947 -3.92754483 
H 34.3181458 4.80798340 -3.30061936 
O 31.9256840 -1.32875943 -3.37056851 
H 31.7113094 -2.21474862 -3.09248471 
H 32.5857582 -1.00099266 -2.73607969 
15
substructure 5-mer 476 from 7-mer
O 35.4462166 1.30129158 -3.44016099 
H 35.4074860 2.17422104 -3.03820634 
H 34.8825188 1.38578093 -4.21932697 
O 31.3471165 1.29806793 -4.00639772 
H 31.4370117 0.340927243 -3.88145590 
H 31.4443893 1.68423212 -3.12813997 
O 33.4673080 2.34347796 -5.30381680 
H 33.3713074 2.30444145 -6.25066280 
H 32.6667137 1.93816447 -4.92256689 
O 34.0307236 3.92485857 -3.08341122 
H 33.8471375 3.47888947 -3.92754483 
H 34.3181458 4.80798340 -3.30061936 
O 31.9256840 -1.32875943 -3.37056851 
H 31.7113094 -2.21474862 -3.09248471 
H 32.5857582 -1.00099266 -2.73607969 
15
substructure 5-mer 477 from 7-mer
O 35.4462166 1.30129158 -3.44016099 
H 35.4074860 2.17422104 -3.03820634 
H 34.8825188 1.38578093 -4.21932697 
O 32.2475967 2.45726371 -1.50623119 
H 32.8722153 3.04341459 -1.96215546 
H 31.8630409 2.96642923 -0.796870232 
O 33.4673080 2.34347796 -5.30381680 
H 33.3713074 2.30444145 -6.25066280 
H 32.6667137 1.93816447 -4.92256689 
O 34.0307236 3.92485857 -3.08341122 
H 33.8471375 3.47888947 -3.92754483 
H 34.3181458 4.80798340 -3.30061936 
O 31.9256840 -1.32875943 -3.37056851 
H 31.7113094 -2.21474862 -3.09248471 
H 32.5857582 -1.00099266 -2.73607969 
15
substructure 5-mer 478 from 7-mer
O 33.6955681 -6.16948418E-02 -1.67954063 
H 33.1889915 0.726294100 -1.45001054 
H 34.4120216 0.259031445 -2.24460745 
O 31.3471165 1.29806793 -4.00639772 
H 31.4370117 0.340927243 -3.88145590 
H 31.4443893 1.68423212 -3.12813997 
O 32.2475967 2.45726371 -1.50623119 
H 32.8722153 3.04341459 -1.96215546 
H 31.8630409 2.96642923 -0.796870232 
O 33.4673080 2.34347796 -5.30381680 
H 33.3713074 2.30444145 -6.25066280 
H 32.6667137 1.93816447 -4.92256689 
O 34.0307236 3.92485857 -3.08341122 
H 33.8471375 3.47888947 -3.92754483 
H 34.3181458 4.80798340 -3.30061936 
15
substructure 5-mer 479 from 7-mer
O 33.6955681 -6.16948418E-02 -1.67954063 
H 33.1889915 0.726294100 -1.45001054 
H 34.4120216 0.259031445 -2.24460745 
O 31.3471165 1.29806793 -4.00639772 
H 31.4370117 0.340927243 -3.88145590 
H 31.4443893 1.68423212 -3.12813997 
O 32.2475967 2.45726371 -1.50623119 
H 32.8722153 3.04341459 -1.96215546 
H 31.8630409 2.96642923 -0.796870232 
O 33.4673080 2.34347796 -5.30381680 
H 33.3713074 2.30444145 -6.25066280 
H 32.6667137 1.93816447 -4.92256689 
O 31.9256840 -1.32875943 -3.37056851 
H 31.7113094 -2.21474862 -3.09248471 
H 32.5857582 -1.00099266 -2.73607969 
15
substructure 5-mer 480 from 7-mer
O 33.6955681 -6.16948418E-02 -1.67954063 
H 33.1889915 0.726294100 -1.45001054 
H 34.4120216 0.259031445 -2.24460745 
O 31.3471165 1.29806793 -4.00639772 
H 31.4370117 0.340927243 -3.88145590 
H 31.4443893 1.68423212 -3.12813997 
O 32.2475967 2.45726371 -1.50623119 
H 32.8722153 3.04341459 -1.96215546 
H 31.8630409 2.96642923 -0.796870232 
O 34.0307236 3.92485857 -3.08341122 
H 33.8471375 3.47888947 -3.92754483 
H 34.3181458 4.80798340 -3.30061936 
O 31.9256840 -1.32875943 -3.37056851 
H 31.7113094 -2.21474862 -3.09248471 
H 32.5857582 -1.00099266 -2.73607969 
15
substructure 5-mer 481 from 7-mer
O 33.6955681 -6.16948418E-02 -1.67954063 
H 33.1889915 0.726294100 -1.45001054 
H 34.4120216 0.259031445 -2.24460745 
O 31.3471165 1.29806793 -4.00639772 
H 31.4370117 0.340927243 -3.88145590 
H 31.4443893 1.68423212 -3.12813997 
O 33.4673080 2.34347796 -5.30381680 
H 33.3713074 2.30444145 -6.25066280 
H 32.6667137 1.93816447 -4.92256689 
O 34.0307236 3.92485857 -3.08341122 
H 33.8471375 3.47888947 -3.92754483 
H 34.3181458 4.80798340 -3.30061936 
O 31.9256840 -1.32875943 -3.37056851 
H 31.7113094 -2.21474862 -3.09248471 
H 32.5857582 -1.00099266 -2.73607969 
15
substructure 5-mer 482 from 7-mer
O 33.6955681 -6.16948418E-02 -1.67954063 
H 33.1889915 0.726294100 -1.45001054 
H 34.4120216 0.259031445 -2.24460745 
O 32.2475967 2.45726371 -1.50623119 
H 32.8722153 3.04341459 -1.96215546 
H 31.8630409 2.96642923 -0.796870232 
O 33.4673080 2.34347796 -5.30381680 
H 33.3713074 2.30444145 -6.25066280 
H 32.6667137 1.93816447 -4.92256689 
O 34.0307236 3.92485857 -3.08341122 
H 33.8471375 3.47888947 -3.92754483 
H 34.3181458 4.80798340 -3.30061936 
O 31.9256840 -1.32875943 -3.37056851 
H 31.7113094 -2.21474862 -3.09248471 
H 32.5857582 -1.00099266 -2.73607969 
15
substructure 5-mer 483 from 7-mer
O 31.3471165 1.29806793 -4.00639772 
H 31.4370117 0.340927243 -3.88145590 
H 31.4443893 1.68423212 -3.12813997 
O 32.2475967 2.45726371 -1.50623119 
H 32.8722153 3.04341459 -1.96215546 
H 31.8630409 2.96642923 -0.796870232 
O 33.4673080 2.34347796 -5.30381680 
H 33.3713074 2.30444145 -6.25066280 
H 32.6667137 1.93816447 -4.92256689 
O 34.0307236 3.92485857 -3.08341122 
H 33.8471375 3.47888947 -3.92754483 
H 34.3181458 4.80798340 -3.30061936 
O 31.9256840 -1.32875943 -3.37056851 
H 31.7113094 -2.21474862 -3.09248471 
H 32.5857582 -1.00099266 -2.73607969 
15
substructure 5-mer 484 from 7-mer
O 29.9502010 0.705858469 -2.10501218 
H 29.3943386 -5.45560382E-02 -1.95776761 
H 30.8321819 0.460011244 -1.78043664 
O 32.5389023 0.173314527 -1.32145429 
H 33.1873627 -0.224986285 -0.747788489 
H 33.0142670 0.848845243 -1.83362412 
O 33.6963615 2.15818191 -2.83509421 
H 33.4541054 2.02990460 -3.76099324 
H 33.3105087 3.00988698 -2.59804583 
O 32.6405716 2.28583431 -5.51228094 
H 32.7388191 1.94795513 -6.39832211 
H 32.8901672 3.22538686 -5.54264259 
O 32.1638489 4.62703180 -2.63981462 
H 31.4482574 4.05366468 -2.97400427 
H 31.8095856 5.09991074 -1.89258492 
15
substructure 5-mer 485 from 7-mer
O 29.9502010 0.705858469 -2.10501218 
H 29.3943386 -5.45560382E-02 -1.95776761 
H 30.8321819 0.460011244 -1.78043664 
O 32.5389023 0.173314527 -1.32145429 
H 33.1873627 -0.224986285 -0.747788489 
H 33.0142670 0.848845243 -1.83362412 
O 33.6963615 2.15818191 -2.83509421 
H 33.4541054 2.02990460 -3.76099324 
H 33.3105087 3.00988698 -2.59804583 
O 32.6405716 2.28583431 -5.51228094 
H 32.7388191 1.94795513 -6.39832211 
H 32.8901672 3.22538686 -5.54264259 
O 30.4152279 2.89191937 -3.74418712 
H 30.9982243 2.55033922 -4.43211794 
H 30.1726665 2.13499308 -3.19026613 
15
substructure 5-mer 486 from 7-mer
O 29.9502010 0.705858469 -2.10501218 
H 29.3943386 -5.45560382E-02 -1.95776761 
H 30.8321819 0.460011244 -1.78043664 
O 32.5389023 0.173314527 -1.32145429 
H 33.1873627 -0.224986285 -0.747788489 
H 33.0142670 0.848845243 -1.83362412 
O 33.6963615 2.15818191 -2.83509421 
H 33.4541054 2.02990460 -3.76099324 
H 33.3105087 3.00988698 -2.59804583 
O 32.6405716 2.28583431 -5.51228094 
H 32.7388191 1.94795513 -6.39832211 
H 32.8901672 3.22538686 -5.54264259 
O 33.2763710 4.94714308 -5.18646240 
H 32.9140549 4.98788214 -4.28701639 
H 34.0648003 5.48471451 -5.17640018 
15
substructure 5-mer 487 from 7-mer
O 29.9502010 0.705858469 -2.10501218 
H 29.3943386 -5.45560382E-02 -1.95776761 
H 30.8321819 0.460011244 -1.78043664 
O 32.5389023 0.173314527 -1.32145429 
H 33.1873627 -0.224986285 -0.747788489 
H 33.0142670 0.848845243 -1.83362412 
O 33.6963615 2.15818191 -2.83509421 
H 33.4541054 2.02990460 -3.76099324 
H 33.3105087 3.00988698 -2.59804583 
O 32.1638489 4.62703180 -2.63981462 
H 31.4482574 4.05366468 -2.97400427 
H 31.8095856 5.09991074 -1.89258492 
O 30.4152279 2.89191937 -3.74418712 
H 30.9982243 2.55033922 -4.43211794 
H 30.1726665 2.13499308 -3.19026613 
15
substructure 5-mer 488 from 7-mer
O 29.9502010 0.705858469 -2.10501218 
H 29.3943386 -5.45560382E-02 -1.95776761 
H 30.8321819 0.460011244 -1.78043664 
O 32.5389023 0.173314527 -1.32145429 
H 33.1873627 -0.224986285 -0.747788489 
H 33.0142670 0.848845243 -1.83362412 
O 33.6963615 2.15818191 -2.83509421 
H 33.4541054 2.02990460 -3.76099324 
H 33.3105087 3.00988698 -2.59804583 
O 32.1638489 4.62703180 -2.63981462 
H 31.4482574 4.05366468 -2.97400427 
H 31.8095856 5.09991074 -1.89258492 
O 33.2763710 4.94714308 -5.18646240 
H 32.9140549 4.98788214 -4.28701639 
H 34.0648003 5.48471451 -5.17640018 
15
substructure 5-mer 489 from 7-mer
O 29.9502010 0.705858469 -2.10501218 
H 29.3943386 -5.45560382E-02 -1.95776761 
H 30.8321819 0.460011244 -1.78043664 
O 32.5389023 0.173314527 -1.32145429 
H 33.1873627 -0.224986285 -0.747788489 
H 33.0142670 0.848845243 -1.83362412 
O 33.6963615 2.15818191 -2.83509421 
H 33.4541054 2.02990460 -3.76099324 
H 33.3105087 3.00988698 -2.59804583 
O 30.4152279 2.89191937 -3.74418712 
H 30.9982243 2.55033922 -4.43211794 
H 30.1726665 2.13499308 -3.19026613 
O 33.2763710 4.94714308 -5.18646240 
H 32.9140549 4.98788214 -4.28701639 
H 34.0648003 5.48471451 -5.17640018 
15
substructure 5-mer 490 from 7-mer
O 29.9502010 0.705858469 -2.10501218 
H 29.3943386 -5.45560382E-02 -1.95776761 
H 30.8321819 0.460011244 -1.78043664 
O 32.5389023 0.173314527 -1.32145429 
H 33.1873627 -0.224986285 -0.747788489 
H 33.0142670 0.848845243 -1.83362412 
O 32.6405716 2.28583431 -5.51228094 
H 32.7388191 1.94795513 -6.39832211 
H 32.8901672 3.22538686 -5.54264259 
O 32.1638489 4.62703180 -2.63981462 
H 31.4482574 4.05366468 -2.97400427 
H 31.8095856 5.09991074 -1.89258492 
O 30.4152279 2.89191937 -3.74418712 
H 30.9982243 2.55033922 -4.43211794 
H 30.1726665 2.13499308 -3.19026613 
15
substructure 5-mer 491 from 7-mer
O 29.9502010 0.705858469 -2.10501218 
H 29.3943386 -5.45560382E-02 -1.95776761 
H 30.8321819 0.460011244 -1.78043664 
O 32.5389023 0.173314527 -1.32145429 
H 33.1873627 -0.224986285 -0.747788489 
H 33.0142670 0.848845243 -1.83362412 
O 32.6405716 2.28583431 -5.51228094 
H 32.7388191 1.94795513 -6.39832211 
H 32.8901672 3.22538686 -5.54264259 
O 32.1638489 4.62703180 -2.63981462 
H 31.4482574 4.05366468 -2.97400427 
H 31.8095856 5.09991074 -1.89258492 
O 33.2763710 4.94714308 -5.18646240 
H 32.9140549 4.98788214 -4.28701639 
H 34.0648003 5.48471451 -5.17640018 
15
substructure 5-mer 492 from 7-mer
O 29.9502010 0.705858469 -2.10501218 
H 29.3943386 -5.45560382E-02 -1.95776761 
H 30.8321819 0.460011244 -1.78043664 
O 32.5389023 0.173314527 -1.32145429 
H 33.1873627 -0.224986285 -0.747788489 
H 33.0142670 0.848845243 -1.83362412 
O 32.6405716 2.28583431 -5.51228094 
H 32.7388191 1.94795513 -6.39832211 
H 32.8901672 3.22538686 -5.54264259 
O 30.4152279 2.89191937 -3.74418712 
H 30.9982243 2.55033922 -4.43211794 
H 30.1726665 2.13499308 -3.19026613 
O 33.2763710 4.94714308 -5.18646240 
H 32.9140549 4.98788214 -4.28701639 
H 34.0648003 5.48471451 -5.17640018 
15
substructure 5-mer 493 from 7-mer
O 29.9502010 0.705858469 -2.10501218 
H 29.3943386 -5.45560382E-02 -1.95776761 
H 30.8321819 0.460011244 -1.78043664 
O 32.5389023 0.173314527 -1.32145429 
H 33.1873627 -0.224986285 -0.747788489 
H 33.0142670 0.848845243 -1.83362412 
O 32.1638489 4.62703180 -2.63981462 
H 31.4482574 4.05366468 -2.97400427 
H 31.8095856 5.09991074 -1.89258492 
O 30.4152279 2.89191937 -3.74418712 
H 30.9982243 2.55033922 -4.43211794 
H 30.1726665 2.13499308 -3.19026613 
O 33.2763710 4.94714308 -5.18646240 
H 32.9140549 4.98788214 -4.28701639 
H 34.0648003 5.48471451 -5.17640018 
15
substructure 5-mer 494 from 7-mer
O 29.9502010 0.705858469 -2.10501218 
H 29.3943386 -5.45560382E-02 -1.95776761 
H 30.8321819 0.460011244 -1.78043664 
O 33.6963615 2.15818191 -2.83509421 
H 33.4541054 2.02990460 -3.76099324 
H 33.3105087 3.00988698 -2.59804583 
O 32.6405716 2.28583431 -5.51228094 
H 32.7388191 1.94795513 -6.39832211 
H 32.8901672 3.22538686 -5.54264259 
O 32.1638489 4.62703180 -2.63981462 
H 31.4482574 4.05366468 -2.97400427 
H 31.8095856 5.09991074 -1.89258492 
O 30.4152279 2.89191937 -3.74418712 
H 30.9982243 2.55033922 -4.43211794 
H 30.1726665 2.13499308 -3.19026613 
15
substructure 5-mer 495 from 7-mer
O 29.9502010 0.705858469 -2.10501218 
H 29.3943386 -5.45560382E-02 -1.95776761 
H 30.8321819 0.460011244 -1.78043664 
O 33.6963615 2.15818191 -2.83509421 
H 33.4541054 2.02990460 -3.76099324 
H 33.3105087 3.00988698 -2.59804583 
O 32.6405716 2.28583431 -5.51228094 
H 32.7388191 1.94795513 -6.39832211 
H 32.8901672 3.22538686 -5.54264259 
O 32.1638489 4.62703180 -2.63981462 
H 31.4482574 4.05366468 -2.97400427 
H 31.8095856 5.09991074 -1.89258492 
O 33.2763710 4.94714308 -5.18646240 
H 32.9140549 4.98788214 -4.28701639 
H 34.0648003 5.48471451 -5.17640018 
15
substructure 5-mer 496 from 7-mer
O 29.9502010 0.705858469 -2.10501218 
H 29.3943386 -5.45560382E-02 -1.95776761 
H 30.8321819 0.460011244 -1.78043664 
O 33.6963615 2.15818191 -2.83509421 
H 33.4541054 2.02990460 -3.76099324 
H 33.3105087 3.00988698 -2.59804583 
O 32.6405716 2.28583431 -5.51228094 
H 32.7388191 1.94795513 -6.39832211 
H 32.8901672 3.22538686 -5.54264259 
O 30.4152279 2.89191937 -3.74418712 
H 30.9982243 2.55033922 -4.43211794 
H 30.1726665 2.13499308 -3.19026613 
O 33.2763710 4.94714308 -5.18646240 
H 32.9140549 4.98788214 -4.28701639 
H 34.0648003 5.48471451 -5.17640018 
15
substructure 5-mer 497 from 7-mer
O 29.9502010 0.705858469 -2.10501218 
H 29.3943386 -5.45560382E-02 -1.95776761 
H 30.8321819 0.460011244 -1.78043664 
O 33.6963615 2.15818191 -2.83509421 
H 33.4541054 2.02990460 -3.76099324 
H 33.3105087 3.00988698 -2.59804583 
O 32.1638489 4.62703180 -2.63981462 
H 31.4482574 4.05366468 -2.97400427 
H 31.8095856 5.09991074 -1.89258492 
O 30.4152279 2.89191937 -3.74418712 
H 30.9982243 2.55033922 -4.43211794 
H 30.1726665 2.13499308 -3.19026613 
O 33.2763710 4.94714308 -5.18646240 
H 32.9140549 4.98788214 -4.28701639 
H 34.0648003 5.48471451 -5.17640018 
15
substructure 5-mer 498 from 7-mer
O 29.9502010 0.705858469 -2.10501218 
H 29.3943386 -5.45560382E-02 -1.95776761 
H 30.8321819 0.460011244 -1.78043664 
O 32.6405716 2.28583431 -5.51228094 
H 32.7388191 1.94795513 -6.39832211 
H 32.8901672 3.22538686 -5.54264259 
O 32.1638489 4.62703180 -2.63981462 
H 31.4482574 4.05366468 -2.97400427 
H 31.8095856 5.09991074 -1.89258492 
O 30.4152279 2.89191937 -3.74418712 
H 30.9982243 2.55033922 -4.43211794 
H 30.1726665 2.13499308 -3.19026613 
O 33.2763710 4.94714308 -5.18646240 
H 32.9140549 4.98788214 -4.28701639 
H 34.0648003 5.48471451 -5.17640018 
15
substructure 5-mer 499 from 7-mer
O 32.5389023 0.173314527 -1.32145429 
H 33.1873627 -0.224986285 -0.747788489 
H 33.0142670 0.848845243 -1.83362412 
O 33.6963615 2.15818191 -2.83509421 
H 33.4541054 2.02990460 -3.76099324 
H 33.3105087 3.00988698 -2.59804583 
O 32.6405716 2.28583431 -5.51228094 
H 32.7388191 1.94795513 -6.39832211 
H 32.8901672 3.22538686 -5.54264259 
O 32.1638489 4.62703180 -2.63981462 
H 31.4482574 4.05366468 -2.97400427 
H 31.8095856 5.09991074 -1.89258492 
O 30.4152279 2.89191937 -3.74418712 
H 30.9982243 2.55033922 -4.43211794 
H 30.1726665 2.13499308 -3.19026613 
15
substructure 5-mer 500 from 7-mer
O 32.5389023 0.173314527 -1.32145429 
H 33.1873627 -0.224986285 -0.747788489 
H 33.0142670 0.848845243 -1.83362412 
O 33.6963615 2.15818191 -2.83509421 
H 33.4541054 2.02990460 -3.76099324 
H 33.3105087 3.00988698 -2.59804583 
O 32.6405716 2.28583431 -5.51228094 
H 32.7388191 1.94795513 -6.39832211 
H 32.8901672 3.22538686 -5.54264259 
O 32.1638489 4.62703180 -2.63981462 
H 31.4482574 4.05366468 -2.97400427 
H 31.8095856 5.09991074 -1.89258492 
O 33.2763710 4.94714308 -5.18646240 
H 32.9140549 4.98788214 -4.28701639 
H 34.0648003 5.48471451 -5.17640018 
